 $contrl scftyp=rhf dfttyp=b3lyp runtyp=gradient $end
 $system mwords=80 $end
 $basis  gbasis=n31 ngauss=6 ndfunc=1 $end
 $scf    dirscf=.TRUE. $end
 $guess  guess=moread norb=202 $end
 $dft    nrad=96 nleb=1202 $end
 $dft    bfctyp=ssf partfn=ssf $end
 $dft    switch=0.0d0 $end
 $DATA
Phenylalanine
C1
NITROGEN    7.0      0.706000000        -1.996700000        -0.075700000
CARBON      6.0      1.121100000        -0.633500000        -0.481400000
CARBON      6.0      0.629100000         0.489700000         0.448500000
CARBON      6.0     -0.860300000         0.607100000         0.422400000
CARBON      6.0     -1.499900000         1.139000000        -0.699500000
CARBON      6.0     -2.884000000         1.260000000        -0.721900000
CARBON      6.0     -3.638400000         0.854500000         0.374700000
CARBON      6.0     -3.005200000         0.327800000         1.494900000
CARBON      6.0     -1.620200000         0.203300000         1.520900000
CARBON      6.0      2.642900000        -0.591100000        -0.533800000
OXYGEN      8.0      3.160400000        -0.202900000        -1.721300000
OXYGEN      8.0      3.447700000        -0.840900000         0.344700000
HYDROGEN    1.0     -0.291600000        -2.035400000        -0.054400000
HYDROGEN    1.0      1.065300000        -2.212400000         0.831000000
HYDROGEN    1.0      0.699000000        -0.469800000        -1.506700000
HYDROGEN    1.0      1.073700000         1.453500000         0.128900000
HYDROGEN    1.0      0.989600000         0.321400000         1.484600000
HYDROGEN    1.0     -0.905800000         1.462400000        -1.562300000
HYDROGEN    1.0     -3.380700000         1.676500000        -1.604400000
HYDROGEN    1.0     -4.728800000         0.951600000         0.355900000
HYDROGEN    1.0     -3.596800000         0.010800000         2.360100000
HYDROGEN    1.0     -1.126000000        -0.206500000         2.409500000
HYDROGEN    1.0      4.111800000        -0.213100000        -1.683000000
 $END
--- CLOSED SHELL ORBITALS --- GENERATED AT Sun Aug  4 10:31:51 2019
Phenylalanine
E(RHF)=     -551.3994831672, E(NUC)=  666.6649068706,   13 ITERS
 $VEC
 1  1 3.76171523E-06 2.25764349E-05-1.46259010E-06-3.53582954E-06 5.12309621E-06
 1  2-2.27521460E-04-2.54573190E-05-1.11575118E-04-5.23829465E-07 6.38157398E-06
 1  3-6.26282117E-06 6.93238387E-06-5.65573043E-06-9.09105675E-06 1.81506788E-06
 1  4-8.79510922E-06-1.09583277E-05 2.31724832E-05 6.89694933E-06-8.70621583E-06
 1  5 5.65768314E-04-4.05060358E-05-1.55008981E-04 9.93114581E-05-4.76761376E-05
 1  6 1.29132012E-06-3.51808806E-05-6.46829970E-06 2.23448595E-05 3.50341647E-06
 1  7-3.50505277E-06-1.31365185E-05-5.70536544E-06-1.72037670E-06 1.43240680E-05
 1  8 1.00031427E-04-4.55529303E-05 1.45218573E-04-1.15963393E-04 4.45471399E-06
 1  9-1.40172455E-05-7.36084186E-06 3.75332527E-06-4.37866410E-06-3.36003228E-06
 1 10 4.75746727E-06 2.14063709E-05 9.03461758E-06 1.10509304E-06-9.04207896E-06
 1 11-1.77953315E-04-1.23153417E-04-7.74880354E-05 2.21702067E-04 1.56559281E-06
 1 12 8.73084239E-06 5.54672365E-06 1.47694582E-06-4.98275340E-06 8.37416046E-07
 1 13-1.63442699E-06-9.52613061E-06 7.77562428E-08 4.17042028E-06 1.80341638E-06
 1 14 1.27673321E-04 1.23233866E-04-6.48418742E-05 8.06791967E-05-9.06212724E-07
 1 15-1.50127902E-06 6.98314606E-07-2.87715290E-06 3.76203040E-06-2.93527072E-06
 1 16 3.49635094E-07 1.13792926E-06-1.97211625E-07-2.50825963E-06 2.20823195E-06
 1 17 4.85923020E-05 3.97933208E-05 2.45391236E-05-3.85755366E-05 1.27422599E-06
 1 18 2.47807102E-07 5.37443879E-07 1.27737024E-06-1.95525399E-07 7.13035577E-07
 1 19 3.80920373E-07 1.79379550E-06 1.72171100E-06 1.00879280E-06-1.99145559E-06
 1 20-7.28459506E-07-1.91685147E-05 6.01333592E-06-2.33888796E-05 3.84554720E-07
 1 21 6.02174159E-07 1.34551658E-07 8.04677634E-08-1.05796985E-06 7.13158314E-07
 1 22-8.57589056E-07-5.29381843E-06 3.10960926E-06-1.28328217E-06 1.28488006E-07
 1 23 8.57118615E-05 2.87640442E-05 1.57425786E-05-2.81472337E-05 2.44568107E-06
 1 24-1.19270082E-06-9.11174277E-07-8.11264581E-08 3.12825638E-07-7.21420782E-07
 1 25 1.03831305E-06 8.62167974E-06-6.67454824E-06 6.41912443E-07 3.62716560E-06
 1 26-1.89870984E-04 1.72006572E-05-3.87072109E-05 6.75154082E-05-4.61381926E-06
 1 27 9.48727953E-07-9.35684733E-07-5.75177461E-07 1.13679472E-06 1.66947652E-06
 1 28 3.43052186E-08 3.84721980E-04 1.09478334E-04 9.20741094E-05-2.80805774E-04
 1 29-2.13593783E-04 4.03696744E-04-7.36607369E-05 3.50763418E-04-2.72132010E-05
 1 30-4.95952790E-05-5.65578440E-05-1.58358019E-05 3.96153553E-05 4.26016308E-06
 1 31 9.94599642E-01 2.12245364E-02 6.58000721E-04-3.04477931E-04 9.93160554E-04
 1 32 4.32015362E-03-4.42780854E-04 1.09705065E-04-3.82603484E-04-4.20210060E-03
 1 33-4.04294750E-03-4.14034938E-03-1.53812242E-05 5.02848799E-05 4.00767785E-05
 1 34-3.73027165E-04 1.65813815E-05-4.81773398E-06-1.78000585E-05 5.98223668E-05
 1 35-3.51466569E-04 4.33068541E-05-2.48219169E-05 6.32734011E-05 3.68625093E-05
 1 36-1.34170805E-05-3.20457285E-05 4.65299667E-06-1.05648849E-05 8.39082295E-06
 1 37 4.74785914E-06 1.46630100E-07 1.82181880E-05-2.02235076E-05 4.51856631E-05
 1 38-1.59344661E-04-9.21292162E-06-7.83168804E-05 1.96104663E-05 2.45295065E-05
 1 39-1.38486952E-05 2.45472955E-05-3.92375331E-06-1.25278475E-05-2.13288014E-06
 1 40-6.82144919E-06 4.65058858E-07 7.91385467E-06-3.81572074E-06-1.05674451E-05
 1 41 4.16862189E-04-2.73236603E-04
 2  1 4.46362098E-06 9.80772018E-06 1.48230439E-05 8.74179094E-06-5.83737330E-06
 2  2-2.50683234E-05-3.09858894E-05-4.61496263E-05 2.43408315E-05 1.85928444E-05
 2  3 6.15145923E-07 1.46841969E-05 3.77256252E-06-1.75797490E-06 6.70692898E-06
 2  4 4.92367813E-06 7.70668465E-06 3.73618082E-06-4.88111108E-07-1.47014707E-05
 2  5-2.92190031E-04-2.40645710E-04-3.69240013E-06-7.99562247E-06 1.96068560E-05
 2  6 6.72147553E-06 8.05135188E-06 2.07750802E-05-6.07663923E-05-4.63808031E-06
 2  7 1.10966331E-06-1.25430541E-05 1.41010808E-05-1.47477903E-06-1.25221672E-05
 2  8 2.06198608E-04-1.85886474E-04 3.71100172E-06 8.08728882E-05 2.63348523E-05
 2  9-1.36145882E-06 3.86701921E-06-5.64818633E-06-8.10551067E-08-4.76378135E-06
 2 10 5.33798051E-06 2.68818129E-05 8.78103091E-06-3.40722075E-06 2.52938898E-06
 2 11-2.08789347E-04-2.44224288E-04 6.34697094E-05-7.48031601E-05-7.07441409E-06
 2 12 1.08643966E-05 8.92511263E-06 1.40998033E-06 1.37887683E-06 1.12682647E-07
 2 13 1.60527416E-06 8.30534197E-06-3.45946314E-06 1.08289596E-06-1.27000195E-06
 2 14-1.42302413E-04 7.08903503E-05 1.79816163E-05-6.44924889E-05 4.94628657E-07
 2 15 3.27538336E-06-1.23985113E-06-4.21473874E-08 7.64896661E-07 1.73258284E-06
 2 16-3.02682766E-07-1.95942929E-06 3.19905999E-06-5.48060219E-07 6.78561324E-07
 2 17 8.75083577E-05 3.20114583E-05-7.70391627E-06 1.54701474E-05 1.16474655E-06
 2 18-1.25373753E-07-4.66358613E-07 1.01993628E-07-1.37085124E-07 2.57092765E-07
 2 19 5.51068887E-07 2.48711083E-06 1.93827279E-06-6.14374052E-07 1.53100624E-06
 2 20-1.10936611E-05-2.09414087E-05-1.45096470E-06 3.79881401E-06 5.33155222E-07
 2 21 1.33143650E-06 6.79994615E-08-2.42404118E-07 5.15311081E-07 6.08971250E-07
 2 22 6.27617550E-07 2.97408059E-06 1.24067899E-06 8.15367991E-07-2.53495148E-06
 2 23 4.23038932E-05 1.39910228E-05-6.40609177E-06 1.84560778E-05-1.75213735E-07
 2 24 1.69635932E-06 4.12938269E-07 2.39187269E-07 7.42086416E-07 6.83984705E-07
 2 25-1.58582192E-07-1.35277131E-06 5.24047990E-07 4.56083621E-07 1.29223649E-06
 2 26 3.34519001E-06 7.56146562E-05-1.51823880E-05 5.26103119E-06 2.74860298E-06
 2 27-7.19469179E-07-1.48461862E-06 5.20089489E-07-2.26585625E-06 1.86600931E-06
 2 28-8.18262388E-06 4.59896628E-04-3.08189565E-05 1.01379644E-05-4.99404273E-05
 2 29-2.07171314E-04-6.72524088E-04 6.92584275E-05-1.85035439E-04-3.96745036E-04
 2 30-7.54045492E-05-4.48913452E-04 1.14699170E-04-4.09913127E-04 1.34547196E-04
 2 31 3.68135347E-04-7.97043221E-05-1.49009837E-05 1.86855882E-05-5.62835442E-05
 2 32 3.35971673E-04 5.84691531E-05-4.07207178E-05 1.01531195E-04-3.57009711E-06
 2 33-9.16437359E-05-8.95762608E-05 1.59559043E-05-4.18571148E-05-5.10171372E-06
 2 34 9.94686071E-01 2.10091330E-02-1.05243937E-03 3.21526650E-04-1.11496397E-03
 2 35 4.51562579E-03 8.96930952E-05 5.25815084E-06-3.89804645E-05-3.80916786E-03
 2 36-4.09877753E-03-3.74578429E-03-4.38460471E-05 1.73815131E-04-1.31719366E-04
 2 37-1.17547748E-05-1.81444046E-05 2.05172115E-05-4.82555982E-05 8.53258922E-06
 2 38-5.75328124E-05 9.83647138E-06 1.92144400E-05 5.32940916E-06-5.20424222E-05
 2 39-6.12247844E-06-2.03666593E-05-4.68482079E-07 1.92865483E-06-1.60014812E-06
 2 40-7.09564596E-06-2.25445890E-06-9.07225350E-06-5.42619166E-06-1.51416806E-05
 2 41-4.57502634E-05-4.14512380E-05
 3  1 9.95019312E-01 2.49895072E-02-4.76231524E-04 1.02794526E-03 9.09854726E-04
 3  2-2.75658503E-03 2.60309646E-04-1.13638785E-03-5.57179093E-04-3.33617329E-03
 3  3-3.43134569E-03-3.25947907E-03-8.99144258E-05-5.20528308E-05 1.18163387E-04
 3  4-2.59560812E-05 1.64035492E-04-6.18160017E-05-2.55052041E-04 3.95496812E-05
 3  5 1.40626877E-03-3.13110255E-04-6.16434264E-04 5.31180940E-04-1.14760520E-04
 3  6-1.60753144E-04-1.03067374E-04-1.81000434E-05-5.47718584E-06 1.42129359E-05
 3  7-3.39836860E-05-1.09426348E-04 1.18023563E-05 1.31252796E-04 1.91394093E-05
 3  8 4.36253502E-04-3.43319987E-04-7.29876316E-05-1.00895872E-04-6.00650642E-05
 3  9-1.00158925E-04-6.97148320E-05 4.82826723E-06 4.68919869E-06-3.49503160E-07
 3 10 6.89512786E-06 5.04891173E-05-6.22289426E-06 3.84602514E-05-2.74199160E-05
 3 11-2.91930678E-04-4.21159165E-04-1.61944500E-04 5.62561346E-04 5.94706070E-07
 3 12-9.97566934E-06-1.32101429E-06 3.87777349E-05-2.02038974E-05-1.62857293E-06
 3 13 3.12925168E-06-9.14189280E-06 1.70250526E-05-2.17949967E-05 5.91670360E-06
 3 14 2.28633941E-04 2.11539246E-04-2.69110131E-05 1.23053193E-04 2.86213150E-05
 3 15 1.26344511E-05 1.48003861E-05-7.22273697E-06 1.16835889E-05-8.71834660E-07
 3 16 9.02902986E-07 7.40610829E-06-4.87403039E-06 7.81608084E-07 5.50549385E-06
 3 17 5.63995698E-05 5.77449273E-05 4.57472704E-06-7.75353383E-05-7.66273290E-06
 3 18 3.39767696E-06-1.03055268E-06-2.24545453E-06-1.77723337E-06 3.66800691E-07
 3 19 8.33732676E-07 4.18907249E-06 1.04782802E-06 1.79059191E-06-4.79637252E-06
 3 20-5.47872929E-05-3.16208621E-05 3.32108629E-05-6.36799311E-05 3.17795343E-07
 3 21 2.26494891E-06-6.44522396E-07 1.15041370E-06-2.83568868E-06-5.05174680E-08
 3 22-9.41942845E-07-6.38065374E-06 7.04302077E-06-4.37627967E-06 1.92555073E-06
 3 23 1.03605670E-04-7.41516955E-06 5.39900527E-05-1.13382102E-04 1.72981873E-06
 3 24-4.69757883E-07 8.95903086E-07 3.06343524E-08 2.32784264E-08-2.24441999E-07
 3 25 9.34322546E-06 4.93230135E-05-6.64889689E-06 6.85462362E-07 6.41543856E-06
 3 26-5.69695584E-04-1.43283675E-04-1.03468266E-04 2.71477232E-04-1.04094213E-06
 3 27 1.65681780E-05-1.25385248E-06 2.58262076E-06 1.01860522E-05 9.71988005E-06
 3 28-1.04190705E-05-3.08699449E-05 4.62844773E-05 7.28204205E-06-7.98447505E-06
 3 29-9.41520248E-06-1.05304021E-04 1.23438100E-04-1.98168460E-04-4.39449938E-05
 3 30-1.53694689E-05-4.32048361E-05-1.21081735E-05 1.36403137E-06-1.36357615E-05
 3 31 2.67465906E-06 1.35540258E-05-1.08849735E-06-6.26067611E-06 5.34093583E-06
 3 32-1.03897542E-04 1.07017490E-05 1.17398592E-05-1.63825325E-05 8.31838331E-06
 3 33 9.18378991E-06 1.59085500E-05-4.73042840E-06 7.99786882E-07-8.62724854E-06
 3 34-1.59329702E-06-1.14813284E-05-1.05528817E-05 4.11963773E-06 4.68837184E-06
 3 35 1.54291804E-04 7.38833304E-08 1.47687657E-05-5.73222776E-05-1.34970173E-05
 3 36 1.84956193E-06 6.31420559E-06-1.13474079E-05 8.25420547E-06-1.95247145E-06
 3 37 2.99686461E-04 6.06097637E-04 2.89731076E-04 5.73040533E-04-4.76010635E-05
 3 38-1.89935640E-05-4.21171329E-06 1.24341593E-04-2.32397207E-05-2.54491649E-05
 3 39-8.43113504E-06-3.62448436E-06-5.64777983E-06-1.98344518E-05-1.01826306E-06
 3 40-9.25826711E-06 5.61225741E-06 2.41067496E-05 1.05451215E-05-4.66611497E-05
 3 41 4.30795083E-06 2.46371540E-06
 4  1-5.09182184E-05-2.46994625E-04-1.41291329E-04-5.51556077E-05 2.27386999E-05
 4  2 8.01134065E-04 6.62016039E-04 4.67559601E-04 1.03585500E-04-6.27908058E-05
 4  3-5.22641670E-05-1.71215092E-04 5.60611144E-05 2.16386319E-05-2.86653679E-05
 4  4 2.89861294E-03 1.51878463E-04-1.41691389E-06 3.83053646E-05 6.37026656E-05
 4  5 4.54356067E-03 2.79949755E-03 2.68792549E-04-1.16831893E-03-4.46497302E-04
 4  6-2.63776932E-04-1.66981791E-04-2.19173244E-05 4.74993718E-05-1.19067614E-05
 4  7-3.34873778E-05-8.12379116E-05-1.26525184E-04 5.49278889E-05 3.75184840E-05
 4  8-1.56028773E-03 2.27510232E-03-7.17156336E-04-7.20997781E-05-9.76095618E-05
 4  9 3.90587266E-05-2.36441853E-05-3.43143037E-05-3.96577503E-05 4.25871312E-05
 4 10-5.72297937E-05-2.49641915E-04-8.72906674E-05 1.84917924E-05-6.62329216E-06
 4 11 2.11722299E-03 2.54964047E-03-2.89917461E-04 1.02862581E-04 3.56097898E-05
 4 12-9.42918781E-05-8.88418124E-05-1.13145783E-05-1.49333195E-05 4.61862180E-07
 4 13-1.68365550E-05-7.32924453E-05 1.09192715E-05 6.49758498E-06 1.18106894E-05
 4 14 8.98191729E-04-6.70587155E-04-1.64629337E-04 4.34310782E-04-1.87722006E-05
 4 15-3.03609533E-05 1.12295422E-05 4.34795588E-06-1.44679647E-05-2.17775574E-05
 4 16 1.29342424E-07 2.48827691E-07-2.13087841E-05 4.52700241E-06-1.15210107E-05
 4 17-6.21436058E-04-2.59439561E-04 4.37789878E-05-2.00259816E-05-3.57967797E-06
 4 18-4.55869037E-06 3.61398179E-06 2.00567584E-06 1.82509110E-06-4.38213355E-06
 4 19-5.22163026E-06-2.07881973E-05-1.71510014E-05 3.68847729E-06-7.33205532E-06
 4 20 8.95869627E-05 1.51735756E-04-2.03122974E-05 3.46416993E-05-4.54703574E-06
 4 21-1.18981566E-05 1.53235658E-07 1.63833120E-07-1.47992320E-06-4.10801833E-06
 4 22-6.70178841E-06-2.90152143E-05-1.66123240E-05-3.72254296E-06 1.82717690E-05
 4 23-3.62269737E-04-6.16093092E-05-2.68007459E-06-5.49052554E-05 1.79336488E-06
 4 24-1.60897713E-05-4.23047565E-06-4.41389472E-06-5.32587283E-06-6.11655146E-06
 4 25 1.89507106E-06-3.19735207E-06-3.73685481E-07-1.47469806E-05-9.39340756E-06
 4 26 3.12563701E-04-5.16754397E-04 2.72557310E-04-3.62406438E-04-2.08273699E-05
 4 27 6.45250685E-06 2.89192162E-05-8.87291551E-07 1.42434879E-05-2.17969273E-05
 4 28 9.95944141E-01 2.61375275E-02 5.96962157E-04 2.82607237E-04-5.48971216E-04
 4 29-7.75795866E-03 5.91269915E-03-2.87104996E-04 2.92133759E-04-8.80952332E-04
 4 30-2.03620975E-03-7.80756515E-04-2.17038105E-05 2.12042687E-04-5.06461343E-04
 4 31-1.06953595E-04 5.97143683E-04 5.34303552E-05-6.00094795E-05 1.42963156E-04
 4 32-1.56333982E-03-5.46039447E-04 6.00146353E-04-1.61562264E-03 7.89340031E-05
 4 33 3.33154058E-04-5.38054331E-04-8.37587524E-05 2.32599656E-04 3.85902628E-04
 4 34-3.08195665E-04 5.35207578E-04-1.31714047E-04 6.46749533E-05-2.48122508E-04
 4 35-2.86067300E-03 1.67356441E-04-4.42654569E-04 1.74104135E-03 3.23008596E-04
 4 36 2.43371869E-04-1.36868115E-04-2.12492463E-06-5.42446643E-06 1.25563561E-04
 4 37 8.48533898E-05 3.88046026E-04-1.61887523E-04-4.61776870E-06-2.26620915E-04
 4 38-1.85848497E-04-1.03767090E-04 2.45154636E-04-7.10625116E-05-1.52237294E-04
 4 39 4.39472719E-05 2.15043587E-04 8.68562075E-06 1.57439377E-05 1.07707462E-05
 4 40 5.59512330E-05 1.25431249E-05 5.45069239E-05 3.34387249E-05 2.91371168E-04
 4 41 3.21887361E-04 1.52123985E-05
 5  1-2.44637091E-04-1.44518068E-04 3.60923416E-05 7.04700720E-05 1.18839330E-05
 5  2 4.86449994E-03 5.56181525E-04 1.91415337E-03-3.12933238E-04-2.22145447E-04
 5  3-5.22789009E-04-2.10123274E-04-9.95477621E-05 9.67560506E-05 1.87787238E-04
 5  4 9.96079686E-01 2.85740002E-02 3.33476259E-04-2.54863855E-04 3.09590765E-04
 5  5-2.21871518E-02-1.34144936E-03 4.40374873E-04-2.00508057E-03-1.20522881E-03
 5  6-1.25040947E-03-1.16828311E-03 4.04431198E-06 5.66451956E-05-5.46263272E-06
 5  7 6.23881999E-03 6.02157108E-05 1.72566578E-04-1.01067883E-04-1.11519788E-04
 5  8 5.36290794E-03 6.24612803E-04-2.51366968E-03-8.74836077E-04-2.11574525E-04
 5  9-2.81648063E-04-2.87961477E-04 2.68297346E-05 5.65860520E-05-1.66988934E-04
 5 10-2.11654085E-04-3.67790063E-04-1.15433867E-04 1.97099663E-05 7.46752077E-05
 5 11 2.17583481E-03-5.91131400E-04 5.02912506E-04-1.02592610E-03-1.15027007E-04
 5 12-1.20237235E-04-1.08414457E-04-1.68104124E-05 2.70657215E-05 4.74637363E-05
 5 13-1.52689041E-05 1.41685357E-04-2.09120820E-05 7.33080735E-06 8.58664027E-06
 5 14-1.72088211E-03-3.36263498E-04 5.50552417E-04-1.05931537E-03-3.11882877E-05
 5 15 2.29623649E-05 7.89185457E-06 2.77188673E-05-3.72877761E-07 1.88845295E-05
 5 16-6.60520744E-06-2.88011178E-05 2.43153444E-05 4.60034898E-06-7.15496213E-06
 5 17 3.44538331E-04 2.22510631E-05-2.41837036E-04 4.74915909E-04 1.36772463E-05
 5 18-9.65364415E-07-4.27828675E-06-7.07069265E-06 9.26372081E-06-3.35995408E-06
 5 19 4.68191231E-06 2.56158346E-05-4.18296778E-06-6.99219215E-06 1.16562610E-05
 5 20-5.91306687E-04-2.16869457E-04 4.39203390E-05 2.42165422E-05 2.37322645E-06
 5 21 5.57078036E-06 7.11948191E-07 9.85902648E-07 3.25870919E-06 6.74254768E-06
 5 22 1.65513458E-06 1.69459784E-05-2.41012768E-06 1.41409079E-05 1.26140767E-06
 5 23 3.12972683E-05-1.34425839E-04 1.62286232E-05-2.37404156E-04-1.86390060E-05
 5 24 8.90346893E-06 1.02745435E-05-4.57042641E-06-5.68242145E-06 5.18716803E-06
 5 25 2.48819297E-05 3.90193549E-05 5.01124118E-05-2.19631006E-05-4.14189825E-05
 5 26-7.36840669E-05-1.62993893E-04 9.81906082E-06 4.05554509E-04 5.46720021E-05
 5 27 2.88713085E-05 1.54008595E-05 1.74153012E-05-9.71542571E-06 6.41156127E-06
 5 28-3.24056899E-03-4.21974311E-05-2.10346651E-04 1.02212691E-05 3.42043534E-05
 5 29 4.15318236E-03-4.34670416E-03-5.21437222E-04 8.29279079E-04-6.41448368E-04
 5 30-1.69583019E-04-2.20965011E-04-9.93039471E-06-2.47770950E-05 2.61564507E-05
 5 31-6.92984897E-05-4.02934404E-04 7.35502796E-05 2.59146813E-05-1.05424694E-04
 5 32 1.67837248E-03-1.93088322E-05-1.90610371E-04 8.01286054E-04-1.89319908E-04
 5 33-3.03757276E-04-9.60860934E-05-2.47234479E-06-1.41018539E-05-7.00143403E-05
 5 34-7.11264350E-05-3.56519154E-04 5.65219981E-05-5.56591174E-06 2.56619666E-06
 5 35 1.64467132E-03 5.66780811E-05 2.67681864E-04-7.19631349E-04-2.25247450E-04
 5 36-3.20797700E-04-5.27317178E-05-1.79047418E-05 5.77211641E-05-1.13566132E-04
 5 37-1.42196251E-04 5.02913126E-05-1.56121665E-04 2.09570985E-04 3.35727982E-04
 5 38 2.55365513E-03-1.09596409E-04 2.89503733E-04-2.96476893E-04-9.73808664E-05
 5 39 5.97604567E-05-4.35602467E-04 3.02363808E-05 1.43069862E-04 4.98270892E-06
 5 40-4.30326631E-05 1.37040475E-05 2.89260549E-05 2.93376856E-05-1.50118134E-04
 5 41-6.94364323E-05 3.44158140E-04
 6  1 2.52429803E-05 1.18246960E-04-2.06294440E-05-9.38502638E-05-3.95681272E-05
 6  2-1.33000520E-03 4.86612294E-04-3.49020284E-04 1.46366537E-04 4.10925818E-05
 6  3-8.81824760E-06 5.01837556E-05 4.87977482E-05-5.66080817E-05 8.97682471E-06
 6  4-5.98239847E-04-4.24799924E-04 2.02487226E-04 3.59678870E-06-7.93658169E-05
 6  5 1.98807154E-03-2.50381548E-03 3.67435331E-04 1.09545540E-03-1.92889462E-04
 6  6-1.10020911E-04-1.43431614E-04-4.74671681E-05-4.04054726E-05 3.74194332E-05
 6  7 9.74666526E-02 3.22708961E-03-1.55574564E-05-5.30849793E-06-4.88620036E-05
 6  8-5.65084452E-04-1.09581073E-03 1.15574880E-03 7.77027931E-04-6.26023827E-04
 6  9-2.03368338E-04-2.06028963E-04 4.17993162E-05-1.10641501E-05-8.25551540E-05
 6 10 9.83975890E-01 2.76918218E-02 1.45202207E-04-1.47952190E-04-1.15708108E-04
 6 11-1.52473765E-02 5.37411742E-04 1.09807459E-04 6.10905813E-04-1.52688994E-03
 6 12-1.95264280E-03-1.41107275E-03-3.62343302E-05-6.79221059E-05-3.41879609E-04
 6 13 8.23224759E-02 2.08248643E-03-6.53543551E-05 3.29246851E-05-1.72127806E-04
 6 14 4.23922991E-03 1.04997902E-03-9.65807695E-04 2.00069685E-03-4.58136521E-04
 6 15-3.40666580E-04-5.56783823E-04 4.67418618E-05-1.08682839E-04 1.05619873E-04
 6 16 9.10464112E-03 1.68212153E-04-1.78046468E-05 9.15167488E-06 5.04691991E-06
 6 17-7.55645827E-04 1.58985390E-04 2.94938690E-04-7.74491459E-04 6.71769055E-05
 6 18-2.19544112E-05-1.60320644E-06-2.70236666E-05 2.98584463E-05-2.17979235E-05
 6 19-8.48770090E-05-1.31802562E-04-2.99752566E-05 8.55916711E-06-1.41697142E-06
 6 20 1.54513356E-03 7.33339690E-04-6.59694616E-05-3.27945748E-05-7.09472669E-06
 6 21-4.78939751E-05-1.24001594E-05-5.09427303E-06-4.36003664E-06-2.65165107E-05
 6 22 8.07226349E-03 1.30457866E-04-5.47581076E-06-3.97896405E-06 3.00246983E-07
 6 23-7.10185186E-04 5.25956989E-05-2.37729539E-04 6.72363599E-04 8.90934222E-05
 6 24-2.75709255E-05 2.95770549E-06 6.41400173E-06-3.14813519E-05-1.27065381E-05
 6 25 8.20282332E-02 2.10767615E-03-1.13322802E-04-6.55720582E-05 1.70932857E-04
 6 26 3.61271760E-03 1.01329484E-03 5.03694715E-04-1.75985554E-03-5.20074529E-04
 6 27-3.56812937E-04-5.27351920E-04-5.43440171E-05 1.30629468E-04 1.24304668E-04
 6 28-3.66188740E-05-2.21432089E-04 7.07647077E-06-3.35095728E-06-4.31305203E-06
 6 29 1.60387658E-03-1.22845832E-03 1.69898738E-04-6.55923301E-04 6.87235827E-06
 6 30-8.32624604E-05-4.91431269E-05 2.86639126E-06-2.21601576E-05 3.82456636E-07
 6 31 1.50956940E-05 7.43773956E-05 8.56364870E-07 7.20761037E-06 8.06490898E-06
 6 32-5.32726890E-04 1.54925689E-04 1.05200993E-05-1.10836050E-04 3.32351718E-05
 6 33 3.22562924E-05 4.94637328E-05-2.50796609E-06 3.54013858E-05-6.72672872E-06
 6 34-3.27242238E-05-1.37196959E-04-2.26212853E-06-1.25992058E-05 4.89611355E-06
 6 35 8.68232072E-04-5.88087046E-05 7.85453571E-05-1.60608654E-04-9.34653960E-05
 6 36-9.89712830E-05-7.65498328E-05-7.64009483E-06 7.85090160E-06-7.50782321E-06
 6 37-6.23023691E-05 7.89391491E-04 1.88587277E-05-1.47240693E-04-1.49035508E-04
 6 38-2.69852262E-04-7.88344371E-05 2.71657106E-04-1.15581337E-05 6.13612396E-05
 6 39-9.45399147E-05 1.69266484E-04-4.94134656E-05-7.26051349E-05 4.21741401E-06
 6 40 1.86924913E-04-4.25775258E-05-4.66272526E-05-8.38017958E-05 1.32653164E-04
 6 41 1.10482317E-05 6.48743482E-05
 7  1-7.40036459E-05-3.07821024E-04 2.36943020E-05-1.04393655E-04-3.62926172E-05
 7  2 1.40985346E-03-1.38747875E-04 3.45843780E-04 1.07755776E-04-2.07633777E-04
 7  3-1.16398740E-04-1.66997662E-04-7.61909184E-06-3.68571682E-05 2.18477963E-05
 7  4-6.54225236E-03-5.29266718E-05-1.29073048E-04 1.02030648E-04 7.47333738E-05
 7  5 3.84101325E-03-4.75704023E-04 1.79421173E-03 7.91862462E-04-1.60013837E-04
 7  6-3.48017805E-04-2.58035317E-04 4.47653277E-05 8.30870727E-05-1.96475054E-04
 7  7 9.90944676E-01 2.85602245E-02-2.01953277E-04-8.57235332E-05-1.89635204E-04
 7  8-1.79228634E-02 1.12556879E-03 4.95642887E-04 9.25497954E-04-1.48179736E-03
 7  9-1.51985351E-03-1.53549879E-03-2.01142020E-05 1.54929207E-05-3.60406968E-05
 7 10-9.50957777E-02-2.52630245E-03 1.56391033E-05-1.98909627E-05-2.00496360E-05
 7 11 5.56298954E-03 1.86393455E-03-2.90927512E-04 1.74584727E-04-3.01693739E-04
 7 12 9.98011449E-05 2.02151434E-05 5.83427418E-06-3.96292245E-05 3.51359770E-05
 7 13-1.88157937E-02-5.64542221E-04-1.35719249E-04 1.14258947E-05 9.30972126E-06
 7 14-1.85370476E-03 1.71423824E-03-4.80690803E-05-2.60144519E-04 3.58153988E-05
 7 15 4.02196834E-05 1.66573483E-04-1.43925242E-05 1.30989735E-05-7.91719101E-05
 7 16-7.66747852E-03-4.10519868E-04 7.26038777E-06-2.24292174E-06-7.86004731E-06
 7 17 2.75196059E-03 1.34479874E-03-3.91096072E-04 7.26277660E-04 4.97753725E-05
 7 18-5.58548573E-05-1.46265225E-05-1.21663671E-05 5.76519763E-06-2.17043671E-05
 7 19-1.28954651E-03 2.42997792E-05-6.55988030E-06-2.16521732E-06 7.84799611E-06
 7 20-1.30180771E-03-1.04592586E-03 1.28255794E-04-1.69586544E-04 1.14089940E-06
 7 21 9.19769185E-06 5.41317364E-06-1.37960228E-07-2.19945468E-06-6.21278953E-07
 7 22-5.26335472E-03-3.04001133E-04-2.11684882E-07-1.05998652E-05-8.29330735E-07
 7 23 2.18243131E-03 9.09763254E-04 3.23667550E-04-7.68539107E-04 4.04010896E-05
 7 24-4.22806072E-05-9.69825124E-06 1.49677372E-07-1.23512685E-06-2.42701380E-05
 7 25-1.86368003E-02-5.93249705E-04-1.14235165E-04 4.82307595E-05-2.59347664E-06
 7 26-1.34389194E-03 9.63278771E-04-4.01732700E-04 4.76509381E-04 1.01297569E-05
 7 27 4.62683565E-06 1.20488997E-04-1.70292866E-06-2.06254476E-05-6.58392173E-05
 7 28 1.49155585E-05-1.74149099E-04 9.79834560E-05 1.22238589E-05-3.68102266E-05
 7 29 4.94005249E-04 9.24812337E-05-2.91985679E-05 3.83455580E-05-4.18751242E-05
 7 30-3.24250830E-05-3.49927443E-06-1.85768245E-05-4.34678616E-05 5.04278772E-05
 7 31 2.60175454E-05 1.11525426E-04-3.81465459E-05 1.51635422E-05 2.92130996E-05
 7 32-4.76362563E-04 1.78683155E-04-2.98583819E-05-1.87642883E-04 7.29650163E-05
 7 33 9.41324980E-05 7.25074539E-05 1.52614463E-05 3.38273931E-05 8.22543162E-06
 7 34 1.69566782E-05 8.03707906E-05-1.43149018E-05-1.48376785E-05-1.11129343E-05
 7 35-4.24190476E-04 1.05405184E-04-8.40228721E-06 4.02262749E-05 3.47711988E-05
 7 36 4.39698690E-05 6.66114472E-05 6.04591589E-06 1.65783678E-05-5.70358642E-06
 7 37-8.60235363E-05-3.81212591E-04-1.22584759E-04-1.07342250E-04-1.45218535E-04
 7 38-1.69913498E-04 3.29886642E-04 2.52757116E-03 2.55229806E-04 2.38488742E-03
 7 39-1.18943196E-04-1.88779476E-04 1.70587992E-06 3.27203903E-04-5.69863844E-05
 7 40-2.41453212E-04 1.05454568E-05 3.19222076E-04-8.34976177E-05-3.80112512E-04
 7 41-1.53129418E-05-4.89728708E-05
 8  1 7.25273075E-06 2.30599883E-05-3.03997528E-06 6.55137934E-06-2.93155704E-06
 8  2-1.43135957E-04 2.16597589E-05-5.00315621E-05 2.39713029E-05 1.47707370E-05
 8  3 1.34739489E-05 2.20823403E-05 2.97192925E-06-5.66722147E-07 4.43615284E-06
 8  4-5.68687962E-05 2.11402212E-05 2.13499215E-05-1.23295747E-05-3.12060909E-06
 8  5-1.92489348E-04-1.15451693E-04-9.94024477E-05-8.28200855E-06-1.81280153E-05
 8  6-5.12939034E-06 5.26589300E-06 9.78991766E-06 2.03101916E-06-2.46388173E-06
 8  7 9.99052821E-03 1.61775871E-04 1.66128491E-06 3.23530082E-06 1.09442183E-05
 8  8 2.95679028E-04-2.38697484E-04 3.51033450E-05-2.36899067E-04 1.61127695E-05
 8  9-3.66504753E-05-3.49510002E-05-1.70257518E-05 2.31992717E-05-6.96103913E-06
 8 10-3.24875511E-02-9.59770693E-04 6.34068654E-05-1.17415500E-05 1.18553250E-05
 8 11-5.06141196E-04 8.80755624E-05-5.60402943E-05 1.81944533E-04 4.57525546E-05
 8 12 5.33498228E-05 2.26785844E-05-2.87476485E-06 2.08867474E-05 1.69009723E-05
 8 13 2.33913799E-01 6.24414640E-03 1.67453036E-04-2.66836200E-05 6.96829340E-06
 8 14 2.46583627E-03-1.81315738E-03-1.67370546E-04 7.50329820E-04-7.88595730E-04
 8 15-6.85299569E-04-6.69388009E-04 1.68936218E-05-1.66962012E-05-9.04495014E-06
 8 16 9.38863409E-01 2.60859915E-02 8.63873880E-05-7.32765176E-05 1.57534635E-04
 8 17-1.22432736E-02-8.93125978E-04 7.93855521E-04-1.71206398E-03-1.63591727E-03
 8 18-2.18074580E-03-1.81827344E-03-4.25969283E-06-1.28543980E-04-2.06064070E-04
 8 19 1.81043994E-01 4.76417644E-03-1.03787304E-04-3.01379764E-05 9.03361144E-05
 8 20 3.59338927E-03 2.02750766E-03 2.21977681E-04-9.06836135E-04-6.27383890E-04
 8 21-6.05935883E-04-7.59164393E-04-1.89989715E-05 5.61486399E-05 8.52527501E-05
 8 22 1.42422613E-01 3.88478845E-03 2.77220628E-05-1.23979228E-05 2.24092607E-05
 8 23-2.78031318E-03-6.80818418E-04-1.77130434E-04 5.54571772E-04-2.69962609E-04
 8 24-3.31798981E-04-2.25174962E-04-1.30263730E-05 1.27299297E-05-6.52760536E-05
 8 25 2.30644672E-02 4.84464860E-04 3.58015461E-05-1.56003415E-05 3.00203449E-05
 8 26 1.13616695E-03-7.26291084E-04 2.43544891E-04-4.57476862E-04-6.56777774E-05
 8 27-1.07243518E-04-5.82023373E-05-4.11114359E-06-1.99775822E-06-2.73859269E-05
 8 28-2.45346441E-06-1.83938840E-05-1.13842815E-06-2.93675777E-07 1.23823749E-06
 8 29 1.68844621E-04-1.06997635E-04-9.39149380E-06 1.27509155E-04 7.56561554E-06
 8 30-6.49045574E-06-3.44650822E-06-5.79900438E-06 5.41904807E-06 9.86353815E-07
 8 31-3.83270430E-06-1.81878324E-05 1.70541300E-06 2.06795986E-06-2.10409804E-06
 8 32 1.02994192E-04-1.38308731E-05-1.75725827E-05 3.00693638E-05-9.71976309E-06
 8 33-1.17226735E-05-7.71156168E-06-2.44661710E-08-1.36856532E-06-3.43705200E-06
 8 34 3.22498492E-06 1.53201583E-05-2.05965406E-06-1.07536128E-06 1.54168959E-06
 8 35-9.96571429E-05 4.80034562E-05-3.37002697E-06 1.96223211E-06 2.77385916E-06
 8 36 8.93560367E-06 1.16377949E-05 2.33880941E-07-4.12987672E-06 5.73222297E-07
 8 37 4.18960107E-06 2.98807938E-05 2.73078972E-06-9.70260732E-06-1.12214429E-05
 8 38 5.23507240E-05-3.52791650E-05 1.54334736E-05 2.56248137E-06 1.29255439E-04
 8 39-5.27160414E-05 6.14134280E-04-2.07774486E-04 1.31340273E-03-4.85612937E-05
 8 40 6.23298545E-04-5.13167377E-05 1.51509264E-04 2.01934976E-05 2.44393189E-04
 8 41-2.06466073E-06 1.14553122E-05
 9  1 7.85877859E-07-8.18304666E-06-1.19882812E-05-1.53366807E-06-3.69175261E-06
 9  2 9.65148743E-05 1.01412269E-04 1.18964843E-04 1.36442027E-06 3.09231258E-06
 9  3 1.76168448E-05 2.46033980E-06 3.86875319E-06 3.76216629E-06-2.88387965E-06
 9  4-3.48156138E-05 5.88056280E-05-5.67666891E-06-5.86537113E-06 1.21635252E-05
 9  5-3.45081820E-04 1.06553221E-04 1.20143080E-04-2.32513452E-04 9.76471194E-06
 9  6 9.14695224E-07 6.26949311E-06 2.34172229E-06 1.20325192E-05 3.30049334E-06
 9  7 5.59419038E-03 4.42260932E-05 7.76328838E-06 5.34838783E-06-1.33027002E-05
 9  8 4.59823106E-04-2.45432096E-04-2.23056719E-04 1.77570113E-04 1.75846180E-05
 9  9-3.76472105E-05-2.01548240E-05 7.51769457E-06-3.10436242E-05 3.59972970E-06
 9 10-2.53580622E-02-7.63753415E-04 4.61378392E-05 3.66020258E-06-2.11086772E-05
 9 11-1.49109063E-05-1.18821649E-04 8.52253662E-05-1.20928438E-04 2.18257790E-05
 9 12 3.20574585E-05-3.20418272E-06 1.11583837E-05-1.38794535E-05 2.28447728E-05
 9 13-6.83223483E-02-1.97805340E-03-1.08947646E-05 1.97939627E-05-3.54088723E-05
 9 14 3.73659234E-04-1.69992428E-04-5.95981775E-05 1.39321291E-04 2.21854313E-04
 9 15 1.54637374E-04 1.95738444E-04-7.75655234E-06 1.21237021E-06-2.69110985E-05
 9 16-1.60417829E-01-4.54276611E-03 6.25870438E-06 3.22425940E-05-7.81313320E-05
 9 17 1.33996090E-03-3.44995049E-04 2.24410480E-06 7.20966953E-05 2.58326507E-04
 9 18 3.64482800E-04 3.55145695E-04 3.07834516E-06 1.85083386E-05 3.96119347E-06
 9 19 1.51384438E-01 4.02014444E-03-5.66853689E-05 5.99599153E-05-1.30303693E-04
 9 20 2.03509562E-03 1.17754464E-03-6.49193274E-04 1.30584034E-03-4.72845231E-04