 $contrl runtyp=energy nprint=-5 ispher=1 $end
 $system memory=100000000 memddi=200 modio=31 mem10=20000000 $end
 $gddi ngroup=1024 parout=.f. $end
 $scf dirscf=.t. NPUNCH=0 $end
 $basis gbasis=cct $end
 $fmoprp nprint=131 modpar=1033 $end
 $fmo nacut=3 nfrag=3932 resppc=-1 $end
 $fmo nbody=2 $end
 $INTGRL INTOMP=0 $END
 $data
water droplets generated by FU, radius in the file name
 C1
 h 1
 o 8
 $end
 $fmoxyz
 O 8   -0.830983    1.397285   -0.224578
 H 1   -1.725265    1.065338   -0.153277
 H 1   -0.739209    2.045181    0.461399
 O 8  -28.998169    6.634495   -8.494779
 H 1  -29.837374    6.381249   -8.080834
 H 1  -28.853494    5.913555   -9.127010
 O 8  -28.614538    8.756272   -3.973119
 H 1  -28.491005    7.798039   -3.879277
 H 1  -28.295470    9.100913   -3.132926
 O 8  -26.995631    2.021568   -6.549784
 H 1  -27.115498    1.274247   -7.149724
 H 1  -26.350503    2.574766   -6.998426
 O 8  -26.272304    8.577536   -8.432537
 H 1  -26.241030    8.495707   -7.471227
 H 1  -27.189853    8.381927   -8.646890
 O 8  -29.185868    8.963933   -6.705998
 H 1  -29.060195    8.083986   -7.085688
 H 1  -28.912891    8.858166   -5.776337
 O 8  -26.013337    8.157073   -5.436176
 H 1  -26.063095    7.960563   -4.490871
 H 1  -26.016526    9.128445   -5.444936
 O 8  -28.267872    5.654174   -3.837975
 H 1  -27.423436    5.178823   -3.763418
 H 1  -28.844469    5.020936   -4.287728
 O 8  -29.088014    3.989298  -10.125136
 H 1  -28.969108    3.117870  -10.512485
 H 1  -29.849277    3.861365   -9.543402
 O 8  -25.711647   12.159249  -11.783638
 H 1  -24.820033   11.812777  -11.896897
 H 1  -25.763437   12.871599  -12.434095
 O 8  -30.107962    6.219924   -1.100277
 H 1  -29.439515    6.068139   -1.780025
 H 1  -30.540675    5.367088   -1.011838
 O 8  -23.494289   10.584195   -9.246032
 H 1  -22.623403   10.359908   -8.910640
 H 1  -23.985670    9.755636   -9.161279
 O 8  -25.761533    5.591886   -6.720812
 H 1  -25.834158    6.453702   -6.273666
 H 1  -26.392010    5.670593   -7.442275
 O 8  -22.904368    6.684187   -7.190805
 H 1  -23.744291    6.225193   -7.298066
 H 1  -22.836232    6.794937   -6.236937
 O 8  -28.366339   -0.636599   -8.675861
 H 1  -28.959567   -0.090952   -9.211073
 H 1  -28.979742   -1.217802   -8.206355
 O 8  -23.161271    6.989329   -3.789612
 H 1  -23.963158    7.233440   -3.307630
 H 1  -22.503391    7.601294   -3.456878
 O 8  -25.644628    4.590636   -3.378437
 H 1  -25.291311    4.754176   -4.264576
 H 1  -24.965869    4.045456   -2.969587
 O 8  -29.391580    2.887868   -4.800072
 H 1  -29.104906    2.514417   -3.963490
 H 1  -28.680433    2.621872   -5.410853
 O 8  -26.122228   11.898120   -9.093111
 H 1  -26.089646   12.008623  -10.061842
 H 1  -25.271760   11.465676   -8.920668
 O 8  -26.727158    7.279896    0.559791
 H 1  -26.753153    7.097513    1.501250
 H 1  -27.600322    7.652538    0.375619
 O 8  -25.841027    7.416916   -2.255561
 H 1  -25.988444    6.475474   -2.423852
 H 1  -26.024854    7.496111   -1.303768
 O 8  -29.513371    9.305152   -0.424404
 H 1  -29.953314    9.710968   -1.184500
 H 1  -29.654101    9.965726    0.263201
 O 8  -26.247380   11.279527   -5.626770
 H 1  -27.123732   11.633364   -5.455608
 H 1  -26.071831   11.550723   -6.534597
 O 8  -22.365674    4.361147  -20.257157
 H 1  -23.097500    3.917959  -20.705573
 H 1  -22.801901    4.827862  -19.529838
 O 8  -21.810639    0.962440  -21.167951
 H 1  -21.315410    0.332413  -20.625122
 H 1  -21.121269    1.312527  -21.750495
 O 8  -18.634473    7.546063  -24.030448
 H 1  -17.917125    7.235755  -23.466145
 H 1  -18.267607    7.417398  -24.918120
 O 8  -24.121348    3.429981  -12.218171
 H 1  -24.329026    4.347691  -12.436553
 H 1  -23.684250    3.501794  -11.355735
 O 8  -21.368251    5.008216  -15.093616
 H 1  -22.221046    4.734253  -15.451021
 H 1  -20.935608    4.168405  -14.878845
 O 8  -19.205495    1.617626  -22.326855
 H 1  -19.248892    2.584301  -22.414604
 H 1  -19.355244    1.299755  -23.232420
 O 8  -24.069236    1.153186  -19.237646
 H 1  -23.698583    0.589097  -18.547060
 H 1  -23.308142    1.277405  -19.833025
 O 8  -19.127573    4.323005  -21.316930
 H 1  -20.050841    4.292138  -21.030935
 H 1  -18.952857    5.264098  -21.410523
 O 8  -24.697777    4.131873  -16.037995
 H 1  -25.614210    4.412565  -15.913559
 H 1  -24.600066    4.183356  -17.002604
 O 8  -17.947802   -1.631081  -19.657887
 H 1  -18.273825   -2.541609  -19.636998
 H 1  -17.547296   -1.530335  -18.782648
 O 8  -21.375424    2.000470  -17.397154
 H 1  -21.944274    2.109887  -16.624286
 H 1  -20.996826    2.878712  -17.533176
 O 8  -20.509664    5.817753  -11.469592
 H 1  -20.910589    6.578605  -11.902183
 H 1  -19.563377    6.043903  -11.467065
 O 8  -22.588599    9.993914  -16.601111
 H 1  -21.920229   10.078092  -17.295550
 H 1  -22.123191    9.527177  -15.893930
 O 8  -19.883087   -1.434925  -21.662811
 H 1  -20.639768   -1.918445  -21.311790
 H 1  -19.284331   -1.355918  -20.901513
 O 8  -23.019871    6.541073  -18.116882
 H 1  -23.358513    7.325383  -18.568355
 H 1  -22.065878    6.617408  -18.239741
 O 8  -22.758154   -1.713284  -21.070153
 H 1  -22.383782   -1.411527  -20.223367
 H 1  -23.127124   -0.899116  -21.440992
 O 8  -16.561403    3.811826  -22.742539
 H 1  -16.536150    4.658084  -22.269648
 H 1  -16.759776    3.181393  -22.035218
 O 8  -18.856476    1.370491  -19.462488
 H 1  -19.275915    2.202178  -19.211583
 H 1  -19.020743    1.327687  -20.421939
 O 8  -20.650480    9.159526  -21.631197
 H 1  -21.056195    8.367974  -22.019297
 H 1  -19.848372    9.266495  -22.158478
 O 8  -27.215115    6.050477  -15.017379
 H 1  -27.292293    6.999886  -15.157029
 H 1  -26.816859    5.989700  -14.135959
 O 8  -24.285105    6.263158  -14.057577
 H 1  -24.676551    6.932692  -14.625049
 H 1  -24.279581    5.475526  -14.624201
 O 8  -22.613346   -4.814329  -17.434419
 H 1  -23.071387   -5.588714  -17.073134
 H 1  -22.825316   -4.864860  -18.374028
 O 8  -25.009141   -0.080994  -12.065524
 H 1  -25.063987    0.469164  -12.856332
 H 1  -24.072492   -0.030925  -11.828057
 O 8  -19.527121   -4.364722  -19.899737
 H 1  -19.979516   -4.043585  -19.104739
 H 1  -19.356136   -5.291778  -19.699026
 O 8  -16.113471    1.368868  -20.871131
 H 1  -16.952676    1.115623  -20.457185
 H 1  -15.968796    0.647928  -21.503361
 O 8  -21.542255    8.045817  -14.324778
 H 1  -21.573422    7.116232  -14.602830
 H 1  -22.426469    8.203238  -13.975898
 O 8  -15.729840    3.490646  -16.349470
 H 1  -15.606308    2.532412  -16.255628
 H 1  -15.410772    3.835286  -15.509277
 O 8  -19.309606    2.787441  -14.893551
 H 1  -18.541749    2.429891  -14.422108
 H 1  -18.906969    3.294842  -15.609773
 O 8  -14.110933   -3.244059  -18.926135
 H 1  -14.230801   -3.991380  -19.526076
 H 1  -13.465805   -2.690861  -19.374777
 O 8  -21.323918   -0.764816  -18.842805
 H 1  -21.163036    0.052779  -18.344439
 H 1  -21.067677   -1.454646  -18.213317
 O 8  -25.201198    4.077661   -9.473325
 H 1  -25.616660    3.238787   -9.712985
 H 1  -24.859488    3.900962   -8.583396
 O 8  -26.862837   -1.204574  -14.916918
 H 1  -25.971134   -1.529544  -14.724698
 H 1  -26.768335   -0.239698  -14.876892
 O 8  -26.271952   -4.780283  -15.972428
 H 1  -27.080599   -4.694693  -15.442079
 H 1  -25.646486   -4.218787  -15.481908
 O 8  -13.387607    3.311910  -20.808888
 H 1  -13.356332    3.230081  -19.847579
 H 1  -14.305155    3.116301  -21.023241
 O 8  -17.418831   10.216736  -19.922069
 H 1  -17.185634   10.678878  -20.736743
 H 1  -16.810634    9.473887  -19.899884
 O 8  -24.601663   -2.005739  -17.585618
 H 1  -23.868371   -1.948228  -16.947506
 H 1  -24.654442   -2.951800  -17.760270
 O 8  -19.100082    8.893797  -16.806891
 H 1  -19.352634    9.583356  -17.436937
 H 1  -19.217109    9.339046  -15.954839
 O 8  -19.551862   -2.863892  -17.337440
 H 1  -19.262108   -1.954365  -17.144337
 H 1  -18.782731   -3.379604  -17.081815
 O 8  -22.222055    0.898256  -10.546763
 H 1  -21.584663    1.627228  -10.608703
 H 1  -22.804613    1.190397   -9.840324
 O 8  -16.983665    7.088619  -18.366895
 H 1  -17.478239    7.682615  -17.786076
 H 1  -17.072175    6.230016  -17.938732
 O 8  -21.362844   -7.376931  -20.771586
 H 1  -22.125342   -7.885727  -20.470045
 H 1  -21.686450   -6.464975  -20.701875
 O 8  -23.216639    1.782541  -14.474689
 H 1  -22.536789    1.190373  -14.128988
 H 1  -23.446241    2.343564  -13.715352
 O 8  -27.004290    2.430623  -11.755864
 H 1  -27.600608    2.871958  -12.389871
 H 1  -26.127118    2.612943  -12.122681
 O 8  -28.054485   -0.135148  -11.558912
 H 1  -27.909785    0.827670  -11.589157
 H 1  -27.212535   -0.471840  -11.890569
 O 8  -16.301171    3.698306  -19.082350
 H 1  -16.175498    2.818360  -19.462040
 H 1  -16.028193    3.592539  -18.152689
 O 8  -26.164975    9.140617  -12.054375
 H 1  -26.431363    8.222620  -11.936620
 H 1  -26.856299    9.495904  -12.633296
 O 8  -20.119001    7.163556  -19.306156
 H 1  -20.232036    7.824552  -20.001534
 H 1  -19.697228    7.664050  -18.595407
 O 8  -13.128639    2.891447  -17.812527
 H 1  -13.178397    2.694937  -16.867222
 H 1  -13.131829    3.862819  -17.821287
 O 8  -17.828113   -4.397383  -22.311322
 H 1  -18.526249   -4.216167  -21.662964
 H 1  -18.300472   -4.423081  -23.153335
 O 8  -26.374326    1.933950  -14.914431
 H 1  -25.497376    2.265754  -15.159970
 H 1  -26.954239    2.311840  -15.590148
 O 8  -19.287519    4.411881  -18.217911
 H 1  -19.636175    5.218696  -18.624670
 H 1  -18.450542    4.272224  -18.685228
 O 8  -15.872409    6.402229  -25.068731
 H 1  -15.053864    6.138614  -24.635651
 H 1  -16.414232    5.604492  -25.051109
 O 8  -25.674274    0.614052   -9.432799
 H 1  -26.633438    0.601292   -9.462769
 H 1  -25.429241    0.331151  -10.329015
 O 8  -24.718109   -3.152987  -13.948501
 H 1  -25.453017   -3.473422  -13.401903
 H 1  -24.010569   -2.995409  -13.319576
 O 8  -27.445983   -3.944148  -13.198129
 H 1  -27.849020   -3.172752  -13.619346
 H 1  -28.102724   -4.197445  -12.540026
 O 8  -15.383174    0.388547  -16.214326
 H 1  -14.538738   -0.086804  -16.139769
 H 1  -15.959771   -0.244691  -16.664080
 O 8  -21.085994    8.202202   -8.528620
 H 1  -21.046339    9.159004   -8.521190
 H 1  -21.542247    7.998958   -9.353574
 O 8  -18.687435    4.503551   -8.607044
 H 1  -19.085363    3.785339   -9.110042
 H 1  -19.223159    4.543004   -7.810555
 O 8  -16.203317   -1.276328  -22.501487
 H 1  -16.084410   -2.147756  -22.888836
 H 1  -16.964579   -1.404262  -21.919753
 O 8  -22.196214    3.786021   -9.781527
 H 1  -21.742964    4.591144  -10.067571
 H 1  -22.733557    4.071100   -9.032535
 O 8  -20.150957   10.693453  -14.386554
 H 1  -20.841662   11.339920  -14.215849
 H 1  -20.574638    9.857285  -14.140795
 O 8  -17.769109    6.474287  -11.151708
 H 1  -17.849460    6.111689  -10.256380
 H 1  -17.313155    7.309616  -11.018879
 O 8  -18.306433    5.874810  -14.706723
 H 1  -18.268572    6.821524  -14.863918
 H 1  -19.238650    5.666007  -14.853982
 O 8  -20.430088   10.565261  -18.982426
 H 1  -20.739467   10.187031  -19.819311
 H 1  -19.540593   10.872971  -19.212180
 O 8  -12.826949    6.893623  -24.159990
 H 1  -11.935335    6.547150  -24.273248
 H 1  -12.878740    7.605972  -24.810447
 O 8  -16.454282    1.840977  -25.252365
 H 1  -15.914360    1.053451  -25.152826
 H 1  -16.258146    2.349477  -24.453355
 O 8  -17.223264    0.954297  -13.476628
 H 1  -16.554818    0.802513  -14.156377
 H 1  -17.655977    0.101462  -13.388189
 O 8  -16.327369    6.563809  -21.455979
 H 1  -15.358440    6.531010  -21.423549
 H 1  -16.570263    6.629082  -20.520627
 O 8  -20.605056    0.249271  -13.389501
 H 1  -20.179343    1.086534  -13.608026
 H 1  -20.780033    0.330564  -12.442932
 O 8  -17.957927   11.702546  -23.010180
 H 1  -17.163705   11.183301  -23.188947
 H 1  -18.535084   11.520110  -23.757661
 O 8  -10.609591    5.318568  -21.622383
 H 1   -9.738705    5.094282  -21.286992
 H 1  -11.100973    4.490009  -21.537630
 O 8  -18.709300   -0.095807  -16.874971
 H 1  -19.223132    0.541669  -16.367314
 H 1  -18.660076    0.319260  -17.754295
 O 8  -19.809091    2.637119  -11.420192
 H 1  -18.923904    2.678036  -11.799771
 H 1  -20.152062    3.532343  -11.545620
 O 8  -15.413377    9.794689  -22.786531
 H 1  -14.727782    9.340862  -22.289035
 H 1  -15.655282    9.153068  -23.465187
 O 8  -12.876835    0.326259  -19.097163
 H 1  -12.949461    1.188076  -18.650017
 H 1  -13.507312    0.404967  -19.818626
 O 8  -24.600519   -7.058358  -16.641710
 H 1  -25.120245   -6.333501  -16.269166
 H 1  -25.278794   -7.632169  -17.014920
 O 8  -25.741854    9.425128  -15.787731
 H 1  -26.018516    8.993957  -16.610168
 H 1  -24.831106    9.690695  -15.981943
 O 8  -18.015509   -7.234660  -20.275910
 H 1  -18.767752   -7.785348  -20.033156
 H 1  -18.217439   -6.984253  -21.184114
 O 8  -10.019670    1.418560  -19.567156
 H 1  -10.859593    0.959567  -19.674417
 H 1   -9.951535    1.529311  -18.613288
 O 8  -13.137853   10.135015  -25.930465
 H 1  -13.305710   10.631188  -25.127413
 H 1  -13.815045   10.451225  -26.536740
 O 8  -15.481641   -5.902226  -21.052212
 H 1  -16.074870   -5.356579  -21.587424
 H 1  -16.095045   -6.483428  -20.582706
 O 8  -10.276573    1.723703  -16.165963
 H 1  -11.078460    1.967814  -15.683981
 H 1   -9.618693    2.335667  -15.833229
 O 8  -23.236110   10.435795  -13.562410
 H 1  -23.124502   10.105442  -12.666066
 H 1  -24.176426   10.646819  -13.603255
 O 8  -12.759930   -0.674991  -15.754788
 H 1  -12.406613   -0.511451  -16.640928
 H 1  -12.081171   -1.220170  -15.345938
 O 8  -16.506882   -2.377759  -17.176423
 H 1  -16.220208   -2.751209  -16.339841
 H 1  -15.795735   -2.643755  -17.787204
 O 8  -23.666727    3.291142   -7.029516
 H 1  -23.815126    2.392326   -6.723345
 H 1  -22.930456    3.599538   -6.484510
 O 8  -13.237531    6.632494  -21.469462
 H 1  -13.204948    6.742996  -22.438193
 H 1  -12.387062    6.200049  -21.297020
 O 8  -22.962946    8.102003  -11.270763
 H 1  -23.249625    7.350508  -11.803306
 H 1  -23.799237    8.502015  -11.002293
 O 8  -23.857197   12.742783  -16.517894
 H 1  -23.350587   11.926505  -16.388130
 H 1  -24.421160   12.781263  -15.733837
 O 8  -13.842460    2.014270  -11.816561
 H 1  -13.868455    1.831886  -10.875101
 H 1  -14.715625    2.386912  -12.000733
 O 8  -12.956329    2.151289  -14.631912
 H 1  -13.103746    1.209848  -14.800203
 H 1  -13.140156    2.230484  -13.680119
 O 8  -26.459316    5.659248  -11.916533
 H 1  -27.258341    5.123143  -11.973992
 H 1  -26.047779    5.342418  -11.098959
 O 8  -16.628674    4.039526  -12.800755
 H 1  -17.068617    4.445341  -13.560851
 H 1  -16.769403    4.700099  -12.113150
 O 8  -22.240158   -2.200002  -15.899272
 H 1  -21.475177   -2.062475  -15.335956
 H 1  -22.097151   -3.086927  -16.268482
 O 8  -21.007397    4.757587   -5.611755
 H 1  -21.098104    5.670437   -5.901936
 H 1  -20.566483    4.827696   -4.762682
 O 8  -13.362682    6.013900  -18.003121
 H 1  -14.239034    6.367737  -17.831959
 H 1  -13.187134    6.285097  -18.910948
 O 8  -11.236650   -1.835645  -24.594522
 H 1  -11.444329   -0.917935  -24.812904
 H 1  -10.799553   -1.763833  -23.732087
 O 8   -8.483553   -0.257411  -27.469968
 H 1   -9.336349   -0.531373  -27.827372
 H 1   -8.050910   -1.097222  -27.255197
 O 8   -7.624966    0.552127  -23.845943
 H 1   -8.025891    1.312978  -24.278534
 H 1   -6.678679    0.778276  -23.843417
 O 8  -11.400407    0.997532  -26.433928
 H 1  -11.791853    1.667065  -27.001400
 H 1  -11.394883    0.209899  -27.000552
 O 8  -12.124444   -5.346621  -24.441875
 H 1  -12.179289   -4.796463  -25.232683
 H 1  -11.187794   -5.296552  -24.204408
 O 8   -8.657558    2.780190  -26.701130
 H 1   -8.688724    1.850605  -26.979181
 H 1   -9.541772    2.937611  -26.352249
 O 8   -2.845142   -1.774981  -28.725821
 H 1   -2.721610   -2.733215  -28.631979
 H 1   -2.526074   -1.430340  -27.885629
 O 8   -6.424909   -2.478185  -27.269902
 H 1   -5.657051   -2.835736  -26.798459
 H 1   -6.022271   -1.970785  -27.986124
 O 8  -12.316500   -1.187965  -21.849677
 H 1  -12.731962   -2.026839  -22.089336
 H 1  -11.974791   -1.364665  -20.959747
 O 8   -6.215385    3.628170  -29.183242
 H 1   -6.467937    4.317729  -29.813289
 H 1   -6.332411    4.073419  -28.331191
 O 8   -9.337357   -4.367371  -22.923115
 H 1   -8.699965   -3.638398  -22.985054
 H 1   -9.919916   -4.075230  -22.216675
 O 8  -10.331941   -3.483086  -26.851040
 H 1   -9.652091   -4.075254  -26.505339
 H 1  -10.561543   -2.922062  -26.091703
 O 8  -14.119592   -2.835003  -24.132215
 H 1  -14.715910   -2.393668  -24.766223
 H 1  -13.242420   -2.652683  -24.499033
 O 8  -15.169787   -5.400775  -23.935264
 H 1  -15.025087   -4.437957  -23.965509
 H 1  -14.327837   -5.737467  -24.266920
 O 8  -13.280277    3.874990  -24.430726
 H 1  -13.546666    2.956993  -24.312972
 H 1  -13.971601    4.230277  -25.009647
 O 8  -13.489629   -3.331677  -27.290782
 H 1  -12.612678   -2.999873  -27.536321
 H 1  -14.069541   -2.953786  -27.966499
 O 8  -12.789576   -4.651574  -21.809151
 H 1  -13.748741   -4.664334  -21.839120
 H 1  -12.544544   -4.934475  -22.705367
 O 8  -11.833411   -8.418613  -26.324853
 H 1  -12.568319   -8.739049  -25.778255
 H 1  -11.125871   -8.261036  -25.695928
 O 8   -2.498476   -4.877079  -28.590677
 H 1   -1.654040   -5.352430  -28.516120
 H 1   -3.075073   -5.510317  -29.040431
 O 8   -8.201296    2.936575  -20.904971
 H 1   -8.161641    3.893377  -20.897541
 H 1   -8.657549    2.733331  -21.729925
 O 8   -5.802738   -0.762076  -20.983395
 H 1   -6.200665   -1.480287  -21.486393
 H 1   -6.338461   -0.722622  -20.186907
 O 8   -9.311516   -1.479605  -22.157878
 H 1   -8.858266   -0.674482  -22.443922
 H 1   -9.848859   -1.194527  -21.408886
 O 8   -7.266259    5.427827  -26.762905
 H 1   -7.956965    6.074293  -26.592200
 H 1   -7.689940    4.591658  -26.517146
 O 8   -4.884412    1.208660  -23.528059
 H 1   -4.964762    0.846062  -22.632732
 H 1   -4.428457    2.043990  -23.395230
 O 8   -5.421735    0.609184  -27.083075
 H 1   -5.383874    1.555897  -27.240269
 H 1   -6.353952    0.400380  -27.230333
 O 8   -4.338567   -4.311329  -25.852979
 H 1   -3.670120   -4.463114  -26.532728
 H 1   -4.771279   -5.164165  -25.764541
 O 8   -7.720358   -5.016355  -25.765852
 H 1   -7.294645   -4.179092  -25.984378
 H 1   -7.895335   -4.935062  -24.819284
 O 8   -6.924394   -2.628507  -23.796544
 H 1   -6.039207   -2.587591  -24.176122
 H 1   -7.267364   -1.733283  -23.921971
 O 8  -13.656985    7.475290  -26.849812
 H 1  -14.409927    6.897894  -26.697253
 H 1  -14.001559    8.167374  -27.424735
 O 8    2.608125   -3.541924  -28.542315
 H 1    1.806237   -3.297813  -28.060332
 H 1    3.266004   -2.929959  -28.209580
 O 8  -10.351412    5.170168  -25.938761
 H 1  -10.239804    4.839815  -25.042417
 H 1  -11.291728    5.381193  -25.979607
 O 8    0.124767   -5.940618  -28.131139
 H 1    0.478085   -5.777077  -29.017279
 H 1    0.803527   -6.485797  -27.722289
 O 8  -10.782029   -1.974484  -19.405867
 H 1  -10.930429   -2.873300  -19.099697
 H 1  -10.045758   -1.666088  -18.860861
 O 8  -10.078248    2.836376  -23.647114
 H 1  -10.364927    2.084882  -24.179657
 H 1  -10.914539    3.236388  -23.378644
 O 8   -0.957762   -3.251357  -24.192912
 H 1   -0.983757   -3.433740  -23.251453
 H 1   -1.830927   -2.878715  -24.377084
 O 8  -15.773605   -1.518793  -25.906993
 H 1  -15.988123   -2.310673  -26.419465
 H 1  -15.551975   -0.874576  -26.594462
 O 8   -0.071632   -3.114338  -27.008263
 H 1   -0.219048   -4.055779  -27.176555
 H 1   -0.255458   -3.035142  -26.056470
 O 8  -13.574619    0.393621  -24.292884
 H 1  -14.373643   -0.142483  -24.350343
 H 1  -13.163082    0.076791  -23.475310
 O 8   -3.743976   -1.226101  -25.177107
 H 1   -4.183919   -0.820285  -25.937203
 H 1   -3.884706   -0.565527  -24.489501
 O 8  -15.145943    4.389301  -26.694177
 H 1  -15.778118    4.318381  -27.416955
 H 1  -14.289261    4.392639  -27.168710
 O 8  -16.854388   -8.358915  -23.318340
 H 1  -17.001586   -8.581757  -22.397056
 H 1  -16.415205   -7.498989  -23.279653
 O 8   -8.122699   -0.508040  -17.988107
 H 1   -8.213407    0.404810  -18.278287
 H 1   -7.681786   -0.437931  -17.139033
 O 8  -23.138837   21.622489   -0.375484
 H 1  -23.870663   21.179301   -0.823900
 H 1  -23.575064   22.089204    0.351835
 O 8  -22.583802   18.223783   -1.286278
 H 1  -22.088573   17.593756   -0.743448
 H 1  -21.894433   18.573869   -1.868822
 O 8  -21.958802   20.814746   -4.008912
 H 1  -21.842180   21.219183   -4.878260
 H 1  -22.791863   20.330924   -4.099971
 O 8  -19.407636   24.807406   -4.148775
 H 1  -18.690288   24.497097   -3.584471
 H 1  -19.040770   24.678741   -5.036447
 O 8  -22.141414   22.269558    4.788057
 H 1  -22.994210   21.995596    4.430652
 H 1  -21.708771   21.429747    5.002828
 O 8  -19.978658   18.878969   -2.445182
 H 1  -20.022055   19.845643   -2.532931
 H 1  -20.128407   18.561098   -3.350747
 O 8  -25.945332   17.624885   -2.026851
 H 1  -26.910808   17.563613   -2.117997
 H 1  -25.828233   18.037932   -1.161156
 O 8  -24.842399   18.414528    0.644027
 H 1  -24.471746   17.850440    1.334614
 H 1  -24.081305   18.538747    0.048649
 O 8  -19.900737   21.584347   -1.435257
 H 1  -20.824004   21.553480   -1.149262
 H 1  -19.726020   22.525440   -1.528850
 O 8  -18.720965   15.630262    0.223786
 H 1  -19.046989   14.719734    0.244675
 H 1  -18.320459   15.731008    1.099025
 O 8  -22.148587   19.261813    2.484519
 H 1  -22.717437   19.371229    3.257387
 H 1  -21.769989   20.140054    2.348497
 O 8  -20.656250   15.826417   -1.781138
 H 1  -21.412931   15.342898   -1.430117
 H 1  -20.057494   15.905425   -1.019840
 O 8  -23.531317   15.548058   -1.188480
 H 1  -23.156946   15.849816   -0.341694
 H 1  -23.900287   16.362226   -1.559319
 O 8  -25.323063    9.793328   -0.549737
 H 1  -25.331695   10.604294   -0.020354
 H 1  -26.258974    9.649115   -0.722301
 O 8  -17.334566   21.073169   -2.860866
 H 1  -17.309313   21.919426   -2.387975
 H 1  -17.532939   20.442736   -2.153544
 O 8  -19.629640   18.631834    0.419186
 H 1  -20.049078   19.463521    0.670090
 H 1  -19.793906   18.589029   -0.540265
 O 8  -24.680856   19.159253   -4.323468
 H 1  -24.987560   18.426484   -3.766654
 H 1  -24.327236   18.717472   -5.103752
 O 8  -20.529973   17.985648   -5.177907
 H 1  -21.108785   18.555792   -5.708533
 H 1  -19.673052   18.085481   -5.613484
 O 8  -23.386509   12.447014    2.447254
 H 1  -23.844550   11.672628    2.808539
 H 1  -23.598479   12.396482    1.507646
 O 8  -27.367427   14.924099   -0.460551
 H 1  -26.487823   15.295675   -0.587815
 H 1  -27.537590   15.066683    0.484517
 O 8  -20.300284   12.896621   -0.018064
 H 1  -20.752679   13.217757    0.776934
 H 1  -20.129299   11.969564    0.182648
 O 8  -25.138429   14.089604   -4.560205
 H 1  -24.863151   14.994260   -4.757840
 H 1  -24.397440   13.758134   -4.030009
 O 8  -18.900224   21.650305   -5.314277
 H 1  -18.709824   21.442898   -4.386709
 H 1  -18.693149   20.820077   -5.765820
 O 8  -16.886634   18.630211   -0.989457
 H 1  -17.725839   18.376965   -0.575512
 H 1  -16.741960   17.909271   -1.621688
 O 8  -16.503003   20.751988    3.532203
 H 1  -16.379471   19.793755    3.626045
 H 1  -16.183935   21.096629    4.372396
 O 8  -20.082770   20.048784    4.988122
 H 1  -19.314912   19.691233    5.459565
 H 1  -19.680132   20.556184    4.271900
 O 8  -25.148684   16.993594   -6.569415
 H 1  -25.139732   17.861429   -7.003066
 H 1  -24.206900   16.799388   -6.421326
 O 8  -14.884097   14.017284    0.955538
 H 1  -15.003964   13.269963    0.355598
 H 1  -14.238969   14.570482    0.506896
 O 8  -22.097082   16.496527    1.038868
 H 1  -21.936199   17.314121    1.537235
 H 1  -21.840840   15.806696    1.668356
 O 8  -27.045116   12.481059    3.909245
 H 1  -27.853763   12.566649    4.439595
 H 1  -26.419649   13.042556    4.399766
 O 8  -19.265192   23.727831   -7.142492
 H 1  -19.092802   22.930381   -6.610194
 H 1  -18.614808   23.663729   -7.858785
 O 8  -22.901827   19.486105   -6.783633
 H 1  -22.814327   20.448240   -6.752742
 H 1  -23.181433   19.325819   -7.694287
 O 8  -14.160770   20.573252   -0.927215
 H 1  -14.129495   20.491423    0.034095
 H 1  -15.078319   20.377643   -1.141568
 O 8  -25.374826   15.255604    2.296055
 H 1  -24.641534   15.313115    2.934167
 H 1  -25.427605   14.309542    2.121403
 O 8  -21.349373    9.497117   -3.766367
 H 1  -22.003444    9.639637   -3.067710
 H 1  -20.852273    8.728666   -3.439604
 O 8  -22.398959   13.227341   -3.704115
 H 1  -21.759378   13.793546   -4.167077
 H 1  -22.057903   12.344302   -3.892874
 O 8  -20.325025   14.397451    2.544233
 H 1  -20.035271   15.306978    2.737336
 H 1  -19.555894   13.881738    2.799859
 O 8  -22.995218   18.159598    9.334910
 H 1  -22.357826   18.888571    9.272970
 H 1  -23.577776   18.451739   10.041349
 O 8  -17.756828   24.349962    1.514778
 H 1  -18.251402   24.943957    2.095597
 H 1  -17.845338   23.491359    1.942941
 O 8  -22.136007    9.884412   -0.889913
 H 1  -22.898505    9.375615   -0.588372
 H 1  -22.459613   10.796368   -0.820201
 O 8  -23.989802   19.043884    5.406985
 H 1  -23.309952   18.451715    5.752685
 H 1  -24.219404   19.604907    6.166322
 O 8  -17.074334   20.959649    0.799324
 H 1  -16.948661   20.079702    0.419634
 H 1  -16.801356   20.853882    1.728985
 O 8  -19.659774   17.172737   -8.313012
 H 1  -19.162890   16.362691   -8.182479
 H 1  -20.573498   16.906861   -8.138320
 O 8  -13.901802   20.152789    2.069146
 H 1  -13.951560   19.956279    3.014451
 H 1  -13.904992   21.124161    2.060386
 O 8  -18.601276   12.863960   -2.429649
 H 1  -19.299412   13.045175   -1.781291
 H 1  -19.073635   12.838262   -3.271662
 O 8  -20.060683   21.673224    1.663762
 H 1  -20.409338   22.480038    1.257003
 H 1  -19.223705   21.533567    1.196445
 O 8  -20.567486   14.885762   -5.458713
 H 1  -20.156170   15.588999   -4.945941
 H 1  -21.357898   15.308132   -5.818680
 O 8  -28.409900   10.173106    2.893950
 H 1  -28.004577   10.997517    3.195424
 H 1  -29.344080   10.328925    3.053039
 O 8  -16.645572   23.663571   -5.187057
 H 1  -15.827027   23.399957   -4.753978
 H 1  -17.187395   22.865835   -5.169435
 O 8  -26.390021   12.372607    1.136894
 H 1  -27.018815   12.910876    0.646052
 H 1  -26.731889   12.404059    2.045299
 O 8  -25.491272   14.108356    5.933172
 H 1  -26.226180   13.787920    6.479770
 H 1  -24.783732   14.265934    6.562097
 O 8  -28.219146   13.317195    6.683544
 H 1  -28.622184   14.088590    6.262327
 H 1  -28.875887   13.063898    7.341647
 O 8  -16.156337   17.649890    3.667347
 H 1  -15.311901   17.174539    3.741904
 H 1  -16.732934   17.016652    3.217594
 O 8  -27.673911   14.212735   -6.882001
 H 1  -26.883780   14.294776   -6.335112
 H 1  -27.409453   13.606150   -7.575131
 O 8  -19.460598   21.764893   11.274629
 H 1  -19.858526   21.046682   10.771631
 H 1  -19.996322   21.804347   12.071118
 O 8  -16.976480   15.985014   -2.619814
 H 1  -16.857573   15.113586   -3.007163
 H 1  -17.737742   15.857081   -2.038080
 O 8  -18.542272   23.735629    8.729965
 H 1  -18.622623   23.373031    9.625293
 H 1  -18.086318   24.570959    8.862794
 O 8  -24.258574   10.029646   -3.486521
 H 1  -24.428540    9.924719   -2.538278
 H 1  -25.112970   10.310924   -3.822973
 O 8  -27.953460   11.390989   -2.315487
 H 1  -28.899849   11.523056   -2.232745
 H 1  -27.596502   12.282683   -2.341305
 O 8  -19.079596   23.136153    5.174950
 H 1  -19.041735   24.082866    5.017756
 H 1  -20.011813   22.927349    5.027692
 O 8  -13.600112   24.154965   -4.278317
 H 1  -12.708498   23.808493   -4.391575
 H 1  -13.651903   24.867314   -4.928773
 O 8  -17.227445   19.102319   -5.370692
 H 1  -16.687523   18.314794   -5.271153
 H 1  -17.031309   19.610819   -4.571682
 O 8  -25.345455   16.136103   -9.700748
 H 1  -24.766973   15.368723   -9.750231
 H 1  -25.475265   16.268158   -8.754339
 O 8  -16.924754   24.377398   -8.661869
 H 1  -16.082270   23.946620   -8.508983
 H 1  -17.032777   24.940908   -7.879353
 O 8  -17.996428   18.215640    6.405045
 H 1  -17.327981   18.063855    5.725296
 H 1  -18.429140   17.362804    6.493484
 O 8  -17.100532   23.825151   -1.574305
 H 1  -16.131603   23.792353   -1.541875
 H 1  -17.343426   23.890425   -0.638954
 O 8  -21.378219   17.510614    6.492172
 H 1  -20.952506   18.347877    6.273647
 H 1  -21.553196   17.591907    7.438741
 O 8  -22.596639   16.308964   -7.963023
 H 1  -22.932951   16.911314   -8.638651
 H 1  -22.636078   15.444078   -8.400619
 O 8  -11.382754   22.579911   -1.740710
 H 1  -10.511869   22.355624   -1.405318
 H 1  -11.874136   21.751352   -1.655957
 O 8  -22.923542   16.368130   -4.733219
 H 1  -22.806622   16.051911   -3.828329
 H 1  -22.192715   16.999765   -4.832551
 O 8  -20.254738   11.805160   -5.479391
 H 1  -20.785686   11.995583   -6.254629
 H 1  -20.557136   10.933160   -5.188438
 O 8  -19.482463   17.165536    3.006702
 H 1  -19.996295   17.803011    3.514360
 H 1  -19.433239   17.580603    2.127378
 O 8  -23.516280   12.558545   -0.894172
 H 1  -23.807490   13.460733   -0.702301
 H 1  -23.158112   12.659829   -1.787903
 O 8  -20.582254   19.898462    8.461481
 H 1  -19.697068   19.939378    8.081902