 $CONTRL RUNTYP=ENERGY SCFTYP=RHF MAXIT=1 $END
 $CONTRL NPRINT=-5 ISPHER=1 $END
 $SYSTEM MODIO=15 $END
 $SYSTEM MWORDS=20 $END
 $SCF DIRSCF=.T. NPUNCH=0 $END
 $BASIS GBASIS=N31 NGAUSS=6 NDFUNC=1 $END
 $INTGRL INTOMP=2 $END
 $DATA
Title
C1
C     6.0     0.00000     0.00000     0.00000
C     6.0    -1.22800     0.70900     0.00000
C     6.0    -1.22800     2.12700     0.00000
C     6.0     0.00000     2.83600     0.00000
C     6.0     2.45600     0.00000     0.00000
C     6.0     1.22800     0.70900     0.00000
C     6.0     1.22800     2.12700     0.00000
C     6.0     2.45600     2.83600     0.00000
C     6.0     3.68400     0.70900     0.00000
C     6.0     3.68400     2.12700     0.00000
C     6.0     4.91200     2.83600     0.00000
C     6.0     0.00000     4.25400     0.00000
C     6.0    -1.22800     4.96300     0.00000
C     6.0    -1.22800     6.38100     0.00000
C     6.0     0.00000     7.09000     0.00000
C     6.0     2.45600     4.25400     0.00000
C     6.0     1.22800     4.96300     0.00000
C     6.0     1.22800     6.38100     0.00000
C     6.0     2.45600     7.09000     0.00000
C     6.0     4.91200     4.25400     0.00000
C     6.0     3.68400     4.96300     0.00000
C     6.0     3.68400     6.38100     0.00000
C     6.0     0.00000     1.41800     3.35000
C     6.0    -1.22800     2.12700     3.35000
C     6.0    -1.22800     3.54500     3.35000
C     6.0     0.00000     4.25400     3.35000
C     6.0     2.45600     1.41800     3.35000
C     6.0     1.22800     2.12700     3.35000
C     6.0     1.22800     3.54500     3.35000
C     6.0     2.45600     4.25400     3.35000
C     6.0     3.68400     2.12700     3.35000
C     6.0     3.68400     3.54500     3.35000
C     6.0     4.91200     4.25400     3.35000
C     6.0     0.00000     5.67200     3.35000
C     6.0    -1.22800     6.38100     3.35000
C     6.0    -1.22800     7.79900     3.35000
C     6.0     0.00000     8.50800     3.35000
C     6.0     2.45600     5.67200     3.35000
C     6.0     1.22800     6.38100     3.35000
C     6.0     1.22800     7.79900     3.35000
C     6.0     2.45600     8.50800     3.35000
C     6.0     4.91200     5.67200     3.35000
C     6.0     3.68400     6.38100     3.35000
C     6.0     3.68400     7.79900     3.35000
 $END
