 $CONTRL RUNTYP=ENERGY SCFTYP=RHF MAXIT=1 $END
 $CONTRL NPRINT=-5 ISPHER=1 $END
 $SYSTEM MODIO=15 $END
 $SYSTEM MWORDS=500 $END
 $SCF DIRSCF=.T. NPUNCH=0 $END
 $BASIS GBASIS=N31 NGAUSS=6 NDFUNC=1 $END
 $INTGRL INTOMP=2 $END
 $DATA
Title
C1
C     6.0     0.00000     0.00000     0.00000
C     6.0    -1.22800     0.70900     0.00000
C     6.0    -1.22800     2.12700     0.00000
C     6.0     0.00000     2.83600     0.00000
C     6.0     2.45600     0.00000     0.00000
C     6.0     1.22800     0.70900     0.00000
C     6.0     1.22800     2.12700     0.00000
C     6.0     2.45600     2.83600     0.00000
C     6.0     4.91200     0.00000     0.00000
C     6.0     3.68400     0.70900     0.00000
C     6.0     3.68400     2.12700     0.00000
C     6.0     4.91200     2.83600     0.00000
C     6.0     7.36800     0.00000     0.00000
C     6.0     6.14000     0.70900     0.00000
C     6.0     6.14000     2.12700     0.00000
C     6.0     7.36800     2.83600     0.00000
C     6.0     9.82400     0.00000     0.00000
C     6.0     8.59600     0.70900     0.00000
C     6.0     8.59600     2.12700     0.00000
C     6.0     9.82400     2.83600     0.00000
C     6.0    12.28000     0.00000     0.00000
C     6.0    11.05200     0.70900     0.00000
C     6.0    11.05200     2.12700     0.00000
C     6.0    12.28000     2.83600     0.00000
C     6.0    14.73600     0.00000     0.00000
C     6.0    13.50800     0.70900     0.00000
C     6.0    13.50800     2.12700     0.00000
C     6.0    14.73600     2.83600     0.00000
C     6.0    17.19200     0.00000     0.00000
C     6.0    15.96400     0.70900     0.00000
C     6.0    15.96400     2.12700     0.00000
C     6.0    17.19200     2.83600     0.00000
C     6.0    19.64800     0.00000     0.00000
C     6.0    18.42000     0.70900     0.00000
C     6.0    18.42000     2.12700     0.00000
C     6.0    19.64800     2.83600     0.00000
C     6.0    22.10400     0.00000     0.00000
C     6.0    20.87600     0.70900     0.00000
C     6.0    20.87600     2.12700     0.00000
C     6.0    22.10400     2.83600     0.00000
C     6.0    24.56000     0.00000     0.00000
C     6.0    23.33200     0.70900     0.00000
C     6.0    23.33200     2.12700     0.00000
C     6.0    24.56000     2.83600     0.00000
C     6.0    27.01700     0.00000     0.00000
C     6.0    25.78900     0.70900     0.00000
C     6.0    25.78900     2.12700     0.00000
C     6.0    27.01700     2.83600     0.00000
C     6.0    28.24500     0.70900     0.00000
C     6.0    28.24500     2.12700     0.00000
C     6.0    29.47300     2.83600     0.00000
C     6.0     0.00000     4.25400     0.00000
C     6.0    -1.22800     4.96300     0.00000
C     6.0    -1.22800     6.38100     0.00000
C     6.0     0.00000     7.09000     0.00000
C     6.0     2.45600     4.25400     0.00000
C     6.0     1.22800     4.96300     0.00000
C     6.0     1.22800     6.38100     0.00000
C     6.0     2.45600     7.09000     0.00000
C     6.0     4.91200     4.25400     0.00000
C     6.0     3.68400     4.96300     0.00000
C     6.0     3.68400     6.38100     0.00000
C     6.0     4.91200     7.09000     0.00000
C     6.0     7.36800     4.25400     0.00000
C     6.0     6.14000     4.96300     0.00000
C     6.0     6.14000     6.38100     0.00000
C     6.0     7.36800     7.09000     0.00000
C     6.0     9.82400     4.25400     0.00000
C     6.0     8.59600     4.96300     0.00000
C     6.0     8.59600     6.38100     0.00000
C     6.0     9.82400     7.09000     0.00000
C     6.0    12.28000     4.25400     0.00000
C     6.0    11.05200     4.96300     0.00000
C     6.0    11.05200     6.38100     0.00000
C     6.0    12.28000     7.09000     0.00000
C     6.0    14.73600     4.25400     0.00000
C     6.0    13.50800     4.96300     0.00000
C     6.0    13.50800     6.38100     0.00000
C     6.0    14.73600     7.09000     0.00000
C     6.0    17.19200     4.25400     0.00000
C     6.0    15.96400     4.96300     0.00000
C     6.0    15.96400     6.38100     0.00000
C     6.0    17.19200     7.09000     0.00000
C     6.0    19.64800     4.25400     0.00000
C     6.0    18.42000     4.96300     0.00000
C     6.0    18.42000     6.38100     0.00000
C     6.0    19.64800     7.09000     0.00000
C     6.0    22.10400     4.25400     0.00000
C     6.0    20.87600     4.96300     0.00000
C     6.0    20.87600     6.38100     0.00000
C     6.0    22.10400     7.09000     0.00000
C     6.0    24.56000     4.25400     0.00000
C     6.0    23.33200     4.96300     0.00000
C     6.0    23.33200     6.38100     0.00000
C     6.0    24.56000     7.09000     0.00000
C     6.0    27.01700     4.25400     0.00000
C     6.0    25.78900     4.96300     0.00000
C     6.0    25.78900     6.38100     0.00000
C     6.0    27.01700     7.09000     0.00000
C     6.0    29.47300     4.25400     0.00000
C     6.0    28.24500     4.96300     0.00000
C     6.0    28.24500     6.38100     0.00000
C     6.0    29.47300     7.09000     0.00000
C     6.0     0.00000     8.50800     0.00000
C     6.0    -1.22800     9.21700     0.00000
C     6.0    -1.22800    10.63500     0.00000
C     6.0     0.00000    11.34400     0.00000
C     6.0     2.45600     8.50800     0.00000
C     6.0     1.22800     9.21700     0.00000
C     6.0     1.22800    10.63500     0.00000
C     6.0     2.45600    11.34400     0.00000
C     6.0     4.91200     8.50800     0.00000
C     6.0     3.68400     9.21700     0.00000
C     6.0     3.68400    10.63500     0.00000
C     6.0     4.91200    11.34400     0.00000
C     6.0     7.36800     8.50800     0.00000
C     6.0     6.14000     9.21700     0.00000
C     6.0     6.14000    10.63500     0.00000
C     6.0     7.36800    11.34400     0.00000
C     6.0     9.82400     8.50800     0.00000
C     6.0     8.59600     9.21700     0.00000
C     6.0     8.59600    10.63500     0.00000
C     6.0     9.82400    11.34400     0.00000
C     6.0    12.28000     8.50800     0.00000
C     6.0    11.05200     9.21700     0.00000
C     6.0    11.05200    10.63500     0.00000
C     6.0    12.28000    11.34400     0.00000
C     6.0    14.73600     8.50800     0.00000
C     6.0    13.50800     9.21700     0.00000
C     6.0    13.50800    10.63500     0.00000
C     6.0    14.73600    11.34400     0.00000
C     6.0    17.19200     8.50800     0.00000
C     6.0    15.96400     9.21700     0.00000
C     6.0    15.96400    10.63500     0.00000
C     6.0    17.19200    11.34400     0.00000
C     6.0    19.64800     8.50800     0.00000
C     6.0    18.42000     9.21700     0.00000
C     6.0    18.42000    10.63500     0.00000
C     6.0    19.64800    11.34400     0.00000
C     6.0    22.10400     8.50800     0.00000
C     6.0    20.87600     9.21700     0.00000
C     6.0    20.87600    10.63500     0.00000
C     6.0    22.10400    11.34400     0.00000
C     6.0    24.56000     8.50800     0.00000
C     6.0    23.33200     9.21700     0.00000
C     6.0    23.33200    10.63500     0.00000
C     6.0    24.56000    11.34400     0.00000
C     6.0    27.01700     8.50800     0.00000
C     6.0    25.78900     9.21700     0.00000
C     6.0    25.78900    10.63500     0.00000
C     6.0    27.01700    11.34400     0.00000
C     6.0    29.47300     8.50800     0.00000
C     6.0    28.24500     9.21700     0.00000
C     6.0    28.24500    10.63500     0.00000
C     6.0    29.47300    11.34400     0.00000
C     6.0     0.00000    12.76200     0.00000
C     6.0    -1.22800    13.47100     0.00000
C     6.0    -1.22800    14.88900     0.00000
C     6.0     0.00000    15.59800     0.00000
C     6.0     2.45600    12.76200     0.00000
C     6.0     1.22800    13.47100     0.00000
C     6.0     1.22800    14.88900     0.00000
C     6.0     2.45600    15.59800     0.00000
C     6.0     4.91200    12.76200     0.00000
C     6.0     3.68400    13.47100     0.00000
C     6.0     3.68400    14.88900     0.00000
C     6.0     4.91200    15.59800     0.00000
C     6.0     7.36800    12.76200     0.00000
C     6.0     6.14000    13.47100     0.00000
C     6.0     6.14000    14.88900     0.00000
C     6.0     7.36800    15.59800     0.00000
C     6.0     9.82400    12.76200     0.00000
C     6.0     8.59600    13.47100     0.00000
C     6.0     8.59600    14.88900     0.00000
C     6.0     9.82400    15.59800     0.00000
C     6.0    12.28000    12.76200     0.00000
C     6.0    11.05200    13.47100     0.00000
C     6.0    11.05200    14.88900     0.00000
C     6.0    12.28000    15.59800     0.00000
C     6.0    14.73600    12.76200     0.00000
C     6.0    13.50800    13.47100     0.00000
C     6.0    13.50800    14.88900     0.00000
C     6.0    14.73600    15.59800     0.00000
C     6.0    17.19200    12.76200     0.00000
C     6.0    15.96400    13.47100     0.00000
C     6.0    15.96400    14.88900     0.00000
C     6.0    17.19200    15.59800     0.00000
C     6.0    19.64800    12.76200     0.00000
C     6.0    18.42000    13.47100     0.00000
C     6.0    18.42000    14.88900     0.00000
C     6.0    19.64800    15.59800     0.00000
C     6.0    22.10400    12.76200     0.00000
C     6.0    20.87600    13.47100     0.00000
C     6.0    20.87600    14.88900     0.00000
C     6.0    22.10400    15.59800     0.00000
C     6.0    24.56000    12.76200     0.00000
C     6.0    23.33200    13.47100     0.00000
C     6.0    23.33200    14.88900     0.00000
C     6.0    24.56000    15.59800     0.00000
C     6.0    27.01700    12.76200     0.00000
C     6.0    25.78900    13.47100     0.00000
C     6.0    25.78900    14.88900     0.00000
C     6.0    27.01700    15.59800     0.00000
C     6.0    29.47300    12.76200     0.00000
C     6.0    28.24500    13.47100     0.00000
C     6.0    28.24500    14.88900     0.00000
C     6.0    29.47300    15.59800     0.00000
C     6.0     0.00000    17.01600     0.00000
C     6.0    -1.22800    17.72500     0.00000
C     6.0    -1.22800    19.14300     0.00000
C     6.0     0.00000    19.85200     0.00000
C     6.0     2.45600    17.01600     0.00000
C     6.0     1.22800    17.72500     0.00000
C     6.0     1.22800    19.14300     0.00000
C     6.0     2.45600    19.85200     0.00000
C     6.0     4.91200    17.01600     0.00000
C     6.0     3.68400    17.72500     0.00000
C     6.0     3.68400    19.14300     0.00000
C     6.0     4.91200    19.85200     0.00000
C     6.0     7.36800    17.01600     0.00000
C     6.0     6.14000    17.72500     0.00000
C     6.0     6.14000    19.14300     0.00000
C     6.0     7.36800    19.85200     0.00000
C     6.0     9.82400    17.01600     0.00000
C     6.0     8.59600    17.72500     0.00000
C     6.0     8.59600    19.14300     0.00000
C     6.0     9.82400    19.85200     0.00000
C     6.0    12.28000    17.01600     0.00000
C     6.0    11.05200    17.72500     0.00000
C     6.0    11.05200    19.14300     0.00000
C     6.0    12.28000    19.85200     0.00000
C     6.0    14.73600    17.01600     0.00000
C     6.0    13.50800    17.72500     0.00000
C     6.0    13.50800    19.14300     0.00000
C     6.0    14.73600    19.85200     0.00000
C     6.0    17.19200    17.01600     0.00000
C     6.0    15.96400    17.72500     0.00000
C     6.0    15.96400    19.14300     0.00000
C     6.0    17.19200    19.85200     0.00000
C     6.0    19.64800    17.01600     0.00000
C     6.0    18.42000    17.72500     0.00000
C     6.0    18.42000    19.14300     0.00000
C     6.0    19.64800    19.85200     0.00000
C     6.0    22.10400    17.01600     0.00000
C     6.0    20.87600    17.72500     0.00000
C     6.0    20.87600    19.14300     0.00000
C     6.0    22.10400    19.85200     0.00000
C     6.0    24.56000    17.01600     0.00000
C     6.0    23.33200    17.72500     0.00000
C     6.0    23.33200    19.14300     0.00000
C     6.0    24.56000    19.85200     0.00000
C     6.0    27.01700    17.01600     0.00000
C     6.0    25.78900    17.72500     0.00000
C     6.0    25.78900    19.14300     0.00000
C     6.0    27.01700    19.85200     0.00000
C     6.0    29.47300    17.01600     0.00000
C     6.0    28.24500    17.72500     0.00000
C     6.0    28.24500    19.14300     0.00000
C     6.0    29.47300    19.85200     0.00000
C     6.0     0.00000    21.27000     0.00000
C     6.0    -1.22800    21.97900     0.00000
C     6.0    -1.22800    23.39700     0.00000
C     6.0     0.00000    24.10600     0.00000
C     6.0     2.45600    21.27000     0.00000
C     6.0     1.22800    21.97900     0.00000
C     6.0     1.22800    23.39700     0.00000
C     6.0     2.45600    24.10600     0.00000
C     6.0     4.91200    21.27000     0.00000
C     6.0     3.68400    21.97900     0.00000
C     6.0     3.68400    23.39700     0.00000
C     6.0     4.91200    24.10600     0.00000
C     6.0     7.36800    21.27000     0.00000
C     6.0     6.14000    21.97900     0.00000
C     6.0     6.14000    23.39700     0.00000
C     6.0     7.36800    24.10600     0.00000
C     6.0     9.82400    21.27000     0.00000
C     6.0     8.59600    21.97900     0.00000
C     6.0     8.59600    23.39700     0.00000
C     6.0     9.82400    24.10600     0.00000
C     6.0    12.28000    21.27000     0.00000
C     6.0    11.05200    21.97900     0.00000
C     6.0    11.05200    23.39700     0.00000
C     6.0    12.28000    24.10600     0.00000
C     6.0    14.73600    21.27000     0.00000
C     6.0    13.50800    21.97900     0.00000
C     6.0    13.50800    23.39700     0.00000
C     6.0    14.73600    24.10600     0.00000
C     6.0    17.19200    21.27000     0.00000
C     6.0    15.96400    21.97900     0.00000
C     6.0    15.96400    23.39700     0.00000
C     6.0    17.19200    24.10600     0.00000
C     6.0    19.64800    21.27000     0.00000
C     6.0    18.42000    21.97900     0.00000
C     6.0    18.42000    23.39700     0.00000
C     6.0    19.64800    24.10600     0.00000
C     6.0    22.10400    21.27000     0.00000
C     6.0    20.87600    21.97900     0.00000
C     6.0    20.87600    23.39700     0.00000
C     6.0    22.10400    24.10600     0.00000
C     6.0    24.56000    21.27000     0.00000
C     6.0    23.33200    21.97900     0.00000
C     6.0    23.33200    23.39700     0.00000
C     6.0    24.56000    24.10600     0.00000
C     6.0    27.01700    21.27000     0.00000
C     6.0    25.78900    21.97900     0.00000
C     6.0    25.78900    23.39700     0.00000
C     6.0    27.01700    24.10600     0.00000
C     6.0    29.47300    21.27000     0.00000
C     6.0    28.24500    21.97900     0.00000
C     6.0    28.24500    23.39700     0.00000
C     6.0    29.47300    24.10600     0.00000
C     6.0     0.00000    25.52400     0.00000
C     6.0    -1.22800    26.23300     0.00000
C     6.0    -1.22800    27.65100     0.00000
C     6.0     0.00000    28.36000     0.00000
C     6.0     2.45600    25.52400     0.00000
C     6.0     1.22800    26.23300     0.00000
C     6.0     1.22800    27.65100     0.00000
C     6.0     2.45600    28.36000     0.00000
C     6.0     4.91200    25.52400     0.00000
C     6.0     3.68400    26.23300     0.00000
C     6.0     3.68400    27.65100     0.00000
C     6.0     4.91200    28.36000     0.00000
C     6.0     7.36800    25.52400     0.00000
C     6.0     6.14000    26.23300     0.00000
C     6.0     6.14000    27.65100     0.00000
C     6.0     7.36800    28.36000     0.00000
C     6.0     9.82400    25.52400     0.00000
C     6.0     8.59600    26.23300     0.00000
C     6.0     8.59600    27.65100     0.00000
C     6.0     9.82400    28.36000     0.00000
C     6.0    12.28000    25.52400     0.00000
C     6.0    11.05200    26.23300     0.00000
C     6.0    11.05200    27.65100     0.00000
C     6.0    12.28000    28.36000     0.00000
C     6.0    14.73600    25.52400     0.00000
C     6.0    13.50800    26.23300     0.00000
C     6.0    13.50800    27.65100     0.00000
C     6.0    14.73600    28.36000     0.00000
C     6.0    17.19200    25.52400     0.00000
C     6.0    15.96400    26.23300     0.00000
C     6.0    15.96400    27.65100     0.00000
C     6.0    17.19200    28.36000     0.00000
C     6.0    19.64800    25.52400     0.00000
C     6.0    18.42000    26.23300     0.00000
C     6.0    18.42000    27.65100     0.00000
C     6.0    19.64800    28.36000     0.00000
C     6.0    22.10400    25.52400     0.00000
C     6.0    20.87600    26.23300     0.00000
C     6.0    20.87600    27.65100     0.00000
C     6.0    22.10400    28.36000     0.00000
C     6.0    24.56000    25.52400     0.00000
C     6.0    23.33200    26.23300     0.00000
C     6.0    23.33200    27.65100     0.00000
C     6.0    24.56000    28.36000     0.00000
C     6.0    27.01700    25.52400     0.00000
C     6.0    25.78900    26.23300     0.00000
C     6.0    25.78900    27.65100     0.00000
C     6.0    27.01700    28.36000     0.00000
C     6.0    29.47300    25.52400     0.00000
C     6.0    28.24500    26.23300     0.00000
C     6.0    28.24500    27.65100     0.00000
C     6.0    29.47300    28.36000     0.00000
C     6.0     0.00000    29.77800     0.00000
C     6.0    -1.22800    30.48700     0.00000
C     6.0    -1.22800    31.90500     0.00000
C     6.0     0.00000    32.61400     0.00000
C     6.0     2.45600    29.77800     0.00000
C     6.0     1.22800    30.48700     0.00000
C     6.0     1.22800    31.90500     0.00000
C     6.0     2.45600    32.61400     0.00000
C     6.0     4.91200    29.77800     0.00000
C     6.0     3.68400    30.48700     0.00000
C     6.0     3.68400    31.90500     0.00000
C     6.0     4.91200    32.61400     0.00000
C     6.0     7.36800    29.77800     0.00000
C     6.0     6.14000    30.48700     0.00000
C     6.0     6.14000    31.90500     0.00000
C     6.0     7.36800    32.61400     0.00000
C     6.0     9.82400    29.77800     0.00000
C     6.0     8.59600    30.48700     0.00000
C     6.0     8.59600    31.90500     0.00000
C     6.0     9.82400    32.61400     0.00000
C     6.0    12.28000    29.77800     0.00000
C     6.0    11.05200    30.48700     0.00000
C     6.0    11.05200    31.90500     0.00000
C     6.0    12.28000    32.61400     0.00000
C     6.0    14.73600    29.77800     0.00000
C     6.0    13.50800    30.48700     0.00000
C     6.0    13.50800    31.90500     0.00000
C     6.0    14.73600    32.61400     0.00000
C     6.0    17.19200    29.77800     0.00000
C     6.0    15.96400    30.48700     0.00000
C     6.0    15.96400    31.90500     0.00000
C     6.0    17.19200    32.61400     0.00000
C     6.0    19.64800    29.77800     0.00000
C     6.0    18.42000    30.48700     0.00000
C     6.0    18.42000    31.90500     0.00000
C     6.0    19.64800    32.61400     0.00000
C     6.0    22.10400    29.77800     0.00000
C     6.0    20.87600    30.48700     0.00000
C     6.0    20.87600    31.90500     0.00000
C     6.0    22.10400    32.61400     0.00000
C     6.0    24.56000    29.77800     0.00000
C     6.0    23.33200    30.48700     0.00000
C     6.0    23.33200    31.90500     0.00000
C     6.0    24.56000    32.61400     0.00000
C     6.0    27.01700    29.77800     0.00000
C     6.0    25.78900    30.48700     0.00000
C     6.0    25.78900    31.90500     0.00000
C     6.0    27.01700    32.61400     0.00000
C     6.0    29.47300    29.77800     0.00000
C     6.0    28.24500    30.48700     0.00000
C     6.0    28.24500    31.90500     0.00000
C     6.0     0.00000     1.41800     3.35000
C     6.0    -1.22800     2.12700     3.35000
C     6.0    -1.22800     3.54500     3.35000
C     6.0     0.00000     4.25400     3.35000
C     6.0     2.45600     1.41800     3.35000
C     6.0     1.22800     2.12700     3.35000
C     6.0     1.22800     3.54500     3.35000
C     6.0     2.45600     4.25400     3.35000
C     6.0     4.91200     1.41800     3.35000
C     6.0     3.68400     2.12700     3.35000
C     6.0     3.68400     3.54500     3.35000
C     6.0     4.91200     4.25400     3.35000
C     6.0     7.36800     1.41800     3.35000
C     6.0     6.14000     2.12700     3.35000
C     6.0     6.14000     3.54500     3.35000
C     6.0     7.36800     4.25400     3.35000
C     6.0     9.82400     1.41800     3.35000
C     6.0     8.59600     2.12700     3.35000
C     6.0     8.59600     3.54500     3.35000
C     6.0     9.82400     4.25400     3.35000
C     6.0    12.28000     1.41800     3.35000
C     6.0    11.05200     2.12700     3.35000
C     6.0    11.05200     3.54500     3.35000
C     6.0    12.28000     4.25400     3.35000
C     6.0    14.73600     1.41800     3.35000
C     6.0    13.50800     2.12700     3.35000
C     6.0    13.50800     3.54500     3.35000
C     6.0    14.73600     4.25400     3.35000
C     6.0    17.19200     1.41800     3.35000
C     6.0    15.96400     2.12700     3.35000
C     6.0    15.96400     3.54500     3.35000
C     6.0    17.19200     4.25400     3.35000
C     6.0    19.64800     1.41800     3.35000
C     6.0    18.42000     2.12700     3.35000
C     6.0    18.42000     3.54500     3.35000
C     6.0    19.64800     4.25400     3.35000
C     6.0    22.10400     1.41800     3.35000
C     6.0    20.87600     2.12700     3.35000
C     6.0    20.87600     3.54500     3.35000
C     6.0    22.10400     4.25400     3.35000
C     6.0    24.56000     1.41800     3.35000
C     6.0    23.33200     2.12700     3.35000
C     6.0    23.33200     3.54500     3.35000
C     6.0    24.56000     4.25400     3.35000
C     6.0    27.01700     1.41800     3.35000
C     6.0    25.78900     2.12700     3.35000
C     6.0    25.78900     3.54500     3.35000
C     6.0    27.01700     4.25400     3.35000
C     6.0    28.24500     2.12700     3.35000
C     6.0    28.24500     3.54500     3.35000
C     6.0    29.47300     4.25400     3.35000
C     6.0     0.00000     5.67200     3.35000
C     6.0    -1.22800     6.38100     3.35000
C     6.0    -1.22800     7.79900     3.35000
C     6.0     0.00000     8.50800     3.35000
C     6.0     2.45600     5.67200     3.35000
C     6.0     1.22800     6.38100     3.35000
C     6.0     1.22800     7.79900     3.35000
C     6.0     2.45600     8.50800     3.35000
C     6.0     4.91200     5.67200     3.35000
C     6.0     3.68400     6.38100     3.35000
C     6.0     3.68400     7.79900     3.35000
C     6.0     4.91200     8.50800     3.35000
C     6.0     7.36800     5.67200     3.35000
C     6.0     6.14000     6.38100     3.35000
C     6.0     6.14000     7.79900     3.35000
C     6.0     7.36800     8.50800     3.35000
C     6.0     9.82400     5.67200     3.35000
C     6.0     8.59600     6.38100     3.35000
C     6.0     8.59600     7.79900     3.35000
C     6.0     9.82400     8.50800     3.35000
C     6.0    12.28000     5.67200     3.35000
C     6.0    11.05200     6.38100     3.35000
C     6.0    11.05200     7.79900     3.35000
C     6.0    12.28000     8.50800     3.35000
C     6.0    14.73600     5.67200     3.35000
C     6.0    13.50800     6.38100     3.35000
C     6.0    13.50800     7.79900     3.35000
C     6.0    14.73600     8.50800     3.35000
C     6.0    17.19200     5.67200     3.35000
C     6.0    15.96400     6.38100     3.35000
C     6.0    15.96400     7.79900     3.35000
C     6.0    17.19200     8.50800     3.35000
C     6.0    19.64800     5.67200     3.35000
C     6.0    18.42000     6.38100     3.35000
C     6.0    18.42000     7.79900     3.35000
C     6.0    19.64800     8.50800     3.35000
C     6.0    22.10400     5.67200     3.35000
C     6.0    20.87600     6.38100     3.35000
C     6.0    20.87600     7.79900     3.35000
C     6.0    22.10400     8.50800     3.35000
C     6.0    24.56000     5.67200     3.35000
C     6.0    23.33200     6.38100     3.35000
C     6.0    23.33200     7.79900     3.35000
C     6.0    24.56000     8.50800     3.35000
C     6.0    27.01700     5.67200     3.35000
C     6.0    25.78900     6.38100     3.35000
C     6.0    25.78900     7.79900     3.35000
C     6.0    27.01700     8.50800     3.35000
C     6.0    29.47300     5.67200     3.35000
C     6.0    28.24500     6.38100     3.35000
C     6.0    28.24500     7.79900     3.35000
C     6.0    29.47300     8.50800     3.35000
C     6.0     0.00000     9.92600     3.35000
C     6.0    -1.22800    10.63500     3.35000
C     6.0    -1.22800    12.05300     3.35000
C     6.0     0.00000    12.76200     3.35000
C     6.0     2.45600     9.92600     3.35000
C     6.0     1.22800    10.63500     3.35000
C     6.0     1.22800    12.05300     3.35000
C     6.0     2.45600    12.76200     3.35000
C     6.0     4.91200     9.92600     3.35000
C     6.0     3.68400    10.63500     3.35000
C     6.0     3.68400    12.05300     3.35000
C     6.0     4.91200    12.76200     3.35000
C     6.0     7.36800     9.92600     3.35000
C     6.0     6.14000    10.63500     3.35000
C     6.0     6.14000    12.05300     3.35000
C     6.0     7.36800    12.76200     3.35000
C     6.0     9.82400     9.92600     3.35000
C     6.0     8.59600    10.63500     3.35000
C     6.0     8.59600    12.05300     3.35000
C     6.0     9.82400    12.76200     3.35000
C     6.0    12.28000     9.92600     3.35000
C     6.0    11.05200    10.63500     3.35000
C     6.0    11.05200    12.05300     3.35000
C     6.0    12.28000    12.76200     3.35000
C     6.0    14.73600     9.92600     3.35000
C     6.0    13.50800    10.63500     3.35000
C     6.0    13.50800    12.05300     3.35000
C     6.0    14.73600    12.76200     3.35000
C     6.0    17.19200     9.92600     3.35000
C     6.0    15.96400    10.63500     3.35000
C     6.0    15.96400    12.05300     3.35000
C     6.0    17.19200    12.76200     3.35000
C     6.0    19.64800     9.92600     3.35000
C     6.0    18.42000    10.63500     3.35000
C     6.0    18.42000    12.05300     3.35000
C     6.0    19.64800    12.76200     3.35000
C     6.0    22.10400     9.92600     3.35000
C     6.0    20.87600    10.63500     3.35000
C     6.0    20.87600    12.05300     3.35000
C     6.0    22.10400    12.76200     3.35000
C     6.0    24.56000     9.92600     3.35000
C     6.0    23.33200    10.63500     3.35000
C     6.0    23.33200    12.05300     3.35000
C     6.0    24.56000    12.76200     3.35000
C     6.0    27.01700     9.92600     3.35000
C     6.0    25.78900    10.63500     3.35000
C     6.0    25.78900    12.05300     3.35000
C     6.0    27.01700    12.76200     3.35000
C     6.0    29.47300     9.92600     3.35000
C     6.0    28.24500    10.63500     3.35000
C     6.0    28.24500    12.05300     3.35000
C     6.0    29.47300    12.76200     3.35000
C     6.0     0.00000    14.18000     3.35000
C     6.0    -1.22800    14.88900     3.35000
C     6.0    -1.22800    16.30700     3.35000
C     6.0     0.00000    17.01600     3.35000
C     6.0     2.45600    14.18000     3.35000
C     6.0     1.22800    14.88900     3.35000
C     6.0     1.22800    16.30700     3.35000
C     6.0     2.45600    17.01600     3.35000
C     6.0     4.91200    14.18000     3.35000
C     6.0     3.68400    14.88900     3.35000
C     6.0     3.68400    16.30700     3.35000
C     6.0     4.91200    17.01600     3.35000
C     6.0     7.36800    14.18000     3.35000
C     6.0     6.14000    14.88900     3.35000
C     6.0     6.14000    16.30700     3.35000
C     6.0     7.36800    17.01600     3.35000
C     6.0     9.82400    14.18000     3.35000
C     6.0     8.59600    14.88900     3.35000
C     6.0     8.59600    16.30700     3.35000
C     6.0     9.82400    17.01600     3.35000
C     6.0    12.28000    14.18000     3.35000
C     6.0    11.05200    14.88900     3.35000
C     6.0    11.05200    16.30700     3.35000
C     6.0    12.28000    17.01600     3.35000
C     6.0    14.73600    14.18000     3.35000
C     6.0    13.50800    14.88900     3.35000
C     6.0    13.50800    16.30700     3.35000
C     6.0    14.73600    17.01600     3.35000
C     6.0    17.19200    14.18000     3.35000
C     6.0    15.96400    14.88900     3.35000
C     6.0    15.96400    16.30700     3.35000
C     6.0    17.19200    17.01600     3.35000
C     6.0    19.64800    14.18000     3.35000
C     6.0    18.42000    14.88900     3.35000
C     6.0    18.42000    16.30700     3.35000
C     6.0    19.64800    17.01600     3.35000
C     6.0    22.10400    14.18000     3.35000
C     6.0    20.87600    14.88900     3.35000
C     6.0    20.87600    16.30700     3.35000
C     6.0    22.10400    17.01600     3.35000
C     6.0    24.56000    14.18000     3.35000
C     6.0    23.33200    14.88900     3.35000
C     6.0    23.33200    16.30700     3.35000
C     6.0    24.56000    17.01600     3.35000
C     6.0    27.01700    14.18000     3.35000
C     6.0    25.78900    14.88900     3.35000
C     6.0    25.78900    16.30700     3.35000
C     6.0    27.01700    17.01600     3.35000
C     6.0    29.47300    14.18000     3.35000
C     6.0    28.24500    14.88900     3.35000
C     6.0    28.24500    16.30700     3.35000
C     6.0    29.47300    17.01600     3.35000
C     6.0     0.00000    18.43400     3.35000
C     6.0    -1.22800    19.14300     3.35000
C     6.0    -1.22800    20.56100     3.35000
C     6.0     0.00000    21.27000     3.35000
C     6.0     2.45600    18.43400     3.35000
C     6.0     1.22800    19.14300     3.35000
C     6.0     1.22800    20.56100     3.35000
C     6.0     2.45600    21.27000     3.35000
C     6.0     4.91200    18.43400     3.35000
C     6.0     3.68400    19.14300     3.35000
C     6.0     3.68400    20.56100     3.35000
C     6.0     4.91200    21.27000     3.35000
C     6.0     7.36800    18.43400     3.35000
C     6.0     6.14000    19.14300     3.35000
C     6.0     6.14000    20.56100     3.35000
C     6.0     7.36800    21.27000     3.35000
C     6.0     9.82400    18.43400     3.35000
C     6.0     8.59600    19.14300     3.35000
C     6.0     8.59600    20.56100     3.35000
C     6.0     9.82400    21.27000     3.35000
C     6.0    12.28000    18.43400     3.35000
C     6.0    11.05200    19.14300     3.35000
C     6.0    11.05200    20.56100     3.35000
C     6.0    12.28000    21.27000     3.35000
C     6.0    14.73600    18.43400     3.35000