 $CONTRL RUNTYP=ENERGY SCFTYP=RHF MAXIT=1 $END
 $CONTRL NPRINT=-5 ISPHER=1 $END
 $SYSTEM MODIO=15 $END
 $SYSTEM MWORDS=3000 $END
 $SCF DIRSCF=.T. NPUNCH=0 $END
 $BASIS GBASIS=N31 NGAUSS=6 NDFUNC=1 $END
 $INTGRL INTOMP=2 $END
 $DATA
Title
C1
C     6.0     0.00000     0.00000     0.00000
C     6.0    -1.22800     0.70900     0.00000
C     6.0    -1.22800     2.12700     0.00000
C     6.0     0.00000     2.83600     0.00000
C     6.0     2.45600     0.00000     0.00000
C     6.0     1.22800     0.70900     0.00000
C     6.0     1.22800     2.12700     0.00000
C     6.0     2.45600     2.83600     0.00000
C     6.0     4.91200     0.00000     0.00000
C     6.0     3.68400     0.70900     0.00000
C     6.0     3.68400     2.12700     0.00000
C     6.0     4.91200     2.83600     0.00000
C     6.0     7.36800     0.00000     0.00000
C     6.0     6.14000     0.70900     0.00000
C     6.0     6.14000     2.12700     0.00000
C     6.0     7.36800     2.83600     0.00000
C     6.0     9.82400     0.00000     0.00000
C     6.0     8.59600     0.70900     0.00000
C     6.0     8.59600     2.12700     0.00000
C     6.0     9.82400     2.83600     0.00000
C     6.0    12.28000     0.00000     0.00000
C     6.0    11.05200     0.70900     0.00000
C     6.0    11.05200     2.12700     0.00000
C     6.0    12.28000     2.83600     0.00000
C     6.0    14.73600     0.00000     0.00000
C     6.0    13.50800     0.70900     0.00000
C     6.0    13.50800     2.12700     0.00000
C     6.0    14.73600     2.83600     0.00000
C     6.0    17.19200     0.00000     0.00000
C     6.0    15.96400     0.70900     0.00000
C     6.0    15.96400     2.12700     0.00000
C     6.0    17.19200     2.83600     0.00000
C     6.0    19.64800     0.00000     0.00000
C     6.0    18.42000     0.70900     0.00000
C     6.0    18.42000     2.12700     0.00000
C     6.0    19.64800     2.83600     0.00000
C     6.0    22.10400     0.00000     0.00000
C     6.0    20.87600     0.70900     0.00000
C     6.0    20.87600     2.12700     0.00000
C     6.0    22.10400     2.83600     0.00000
C     6.0    24.56000     0.00000     0.00000
C     6.0    23.33200     0.70900     0.00000
C     6.0    23.33200     2.12700     0.00000
C     6.0    24.56000     2.83600     0.00000
C     6.0    27.01700     0.00000     0.00000
C     6.0    25.78900     0.70900     0.00000
C     6.0    25.78900     2.12700     0.00000
C     6.0    27.01700     2.83600     0.00000
C     6.0    29.47300     0.00000     0.00000
C     6.0    28.24500     0.70900     0.00000
C     6.0    28.24500     2.12700     0.00000
C     6.0    29.47300     2.83600     0.00000
C     6.0    31.92900     0.00000     0.00000
C     6.0    30.70100     0.70900     0.00000
C     6.0    30.70100     2.12700     0.00000
C     6.0    31.92900     2.83600     0.00000
C     6.0    34.38500     0.00000     0.00000
C     6.0    33.15700     0.70900     0.00000
C     6.0    33.15700     2.12700     0.00000
C     6.0    34.38500     2.83600     0.00000
C     6.0    36.84100     0.00000     0.00000
C     6.0    35.61300     0.70900     0.00000
C     6.0    35.61300     2.12700     0.00000
C     6.0    36.84100     2.83600     0.00000
C     6.0    38.06900     0.70900     0.00000
C     6.0    38.06900     2.12700     0.00000
C     6.0    39.29700     2.83600     0.00000
C     6.0     0.00000     4.25400     0.00000
C     6.0    -1.22800     4.96300     0.00000
C     6.0    -1.22800     6.38100     0.00000
C     6.0     0.00000     7.09000     0.00000
C     6.0     2.45600     4.25400     0.00000
C     6.0     1.22800     4.96300     0.00000
C     6.0     1.22800     6.38100     0.00000
C     6.0     2.45600     7.09000     0.00000
C     6.0     4.91200     4.25400     0.00000
C     6.0     3.68400     4.96300     0.00000
C     6.0     3.68400     6.38100     0.00000
C     6.0     4.91200     7.09000     0.00000
C     6.0     7.36800     4.25400     0.00000
C     6.0     6.14000     4.96300     0.00000
C     6.0     6.14000     6.38100     0.00000
C     6.0     7.36800     7.09000     0.00000
C     6.0     9.82400     4.25400     0.00000
C     6.0     8.59600     4.96300     0.00000
C     6.0     8.59600     6.38100     0.00000
C     6.0     9.82400     7.09000     0.00000
C     6.0    12.28000     4.25400     0.00000
C     6.0    11.05200     4.96300     0.00000
C     6.0    11.05200     6.38100     0.00000
C     6.0    12.28000     7.09000     0.00000
C     6.0    14.73600     4.25400     0.00000
C     6.0    13.50800     4.96300     0.00000
C     6.0    13.50800     6.38100     0.00000
C     6.0    14.73600     7.09000     0.00000
C     6.0    17.19200     4.25400     0.00000
C     6.0    15.96400     4.96300     0.00000
C     6.0    15.96400     6.38100     0.00000
C     6.0    17.19200     7.09000     0.00000
C     6.0    19.64800     4.25400     0.00000
C     6.0    18.42000     4.96300     0.00000
C     6.0    18.42000     6.38100     0.00000
C     6.0    19.64800     7.09000     0.00000
C     6.0    22.10400     4.25400     0.00000
C     6.0    20.87600     4.96300     0.00000
C     6.0    20.87600     6.38100     0.00000
C     6.0    22.10400     7.09000     0.00000
C     6.0    24.56000     4.25400     0.00000
C     6.0    23.33200     4.96300     0.00000
C     6.0    23.33200     6.38100     0.00000
C     6.0    24.56000     7.09000     0.00000
C     6.0    27.01700     4.25400     0.00000
C     6.0    25.78900     4.96300     0.00000
C     6.0    25.78900     6.38100     0.00000
C     6.0    27.01700     7.09000     0.00000
C     6.0    29.47300     4.25400     0.00000
C     6.0    28.24500     4.96300     0.00000
C     6.0    28.24500     6.38100     0.00000
C     6.0    29.47300     7.09000     0.00000
C     6.0    31.92900     4.25400     0.00000
C     6.0    30.70100     4.96300     0.00000
C     6.0    30.70100     6.38100     0.00000
C     6.0    31.92900     7.09000     0.00000
C     6.0    34.38500     4.25400     0.00000
C     6.0    33.15700     4.96300     0.00000
C     6.0    33.15700     6.38100     0.00000
C     6.0    34.38500     7.09000     0.00000
C     6.0    36.84100     4.25400     0.00000
C     6.0    35.61300     4.96300     0.00000
C     6.0    35.61300     6.38100     0.00000
C     6.0    36.84100     7.09000     0.00000
C     6.0    39.29700     4.25400     0.00000
C     6.0    38.06900     4.96300     0.00000
C     6.0    38.06900     6.38100     0.00000
C     6.0    39.29700     7.09000     0.00000
C     6.0     0.00000     8.50800     0.00000
C     6.0    -1.22800     9.21700     0.00000
C     6.0    -1.22800    10.63500     0.00000
C     6.0     0.00000    11.34400     0.00000
C     6.0     2.45600     8.50800     0.00000
C     6.0     1.22800     9.21700     0.00000
C     6.0     1.22800    10.63500     0.00000
C     6.0     2.45600    11.34400     0.00000
C     6.0     4.91200     8.50800     0.00000
C     6.0     3.68400     9.21700     0.00000
C     6.0     3.68400    10.63500     0.00000
C     6.0     4.91200    11.34400     0.00000
C     6.0     7.36800     8.50800     0.00000
C     6.0     6.14000     9.21700     0.00000
C     6.0     6.14000    10.63500     0.00000
C     6.0     7.36800    11.34400     0.00000
C     6.0     9.82400     8.50800     0.00000
C     6.0     8.59600     9.21700     0.00000
C     6.0     8.59600    10.63500     0.00000
C     6.0     9.82400    11.34400     0.00000
C     6.0    12.28000     8.50800     0.00000
C     6.0    11.05200     9.21700     0.00000
C     6.0    11.05200    10.63500     0.00000
C     6.0    12.28000    11.34400     0.00000
C     6.0    14.73600     8.50800     0.00000
C     6.0    13.50800     9.21700     0.00000
C     6.0    13.50800    10.63500     0.00000
C     6.0    14.73600    11.34400     0.00000
C     6.0    17.19200     8.50800     0.00000
C     6.0    15.96400     9.21700     0.00000
C     6.0    15.96400    10.63500     0.00000
C     6.0    17.19200    11.34400     0.00000
C     6.0    19.64800     8.50800     0.00000
C     6.0    18.42000     9.21700     0.00000
C     6.0    18.42000    10.63500     0.00000
C     6.0    19.64800    11.34400     0.00000
C     6.0    22.10400     8.50800     0.00000
C     6.0    20.87600     9.21700     0.00000
C     6.0    20.87600    10.63500     0.00000
C     6.0    22.10400    11.34400     0.00000
C     6.0    24.56000     8.50800     0.00000
C     6.0    23.33200     9.21700     0.00000
C     6.0    23.33200    10.63500     0.00000
C     6.0    24.56000    11.34400     0.00000
C     6.0    27.01700     8.50800     0.00000
C     6.0    25.78900     9.21700     0.00000
C     6.0    25.78900    10.63500     0.00000
C     6.0    27.01700    11.34400     0.00000
C     6.0    29.47300     8.50800     0.00000
C     6.0    28.24500     9.21700     0.00000
C     6.0    28.24500    10.63500     0.00000
C     6.0    29.47300    11.34400     0.00000
C     6.0    31.92900     8.50800     0.00000
C     6.0    30.70100     9.21700     0.00000
C     6.0    30.70100    10.63500     0.00000
C     6.0    31.92900    11.34400     0.00000
C     6.0    34.38500     8.50800     0.00000
C     6.0    33.15700     9.21700     0.00000
C     6.0    33.15700    10.63500     0.00000
C     6.0    34.38500    11.34400     0.00000
C     6.0    36.84100     8.50800     0.00000
C     6.0    35.61300     9.21700     0.00000
C     6.0    35.61300    10.63500     0.00000
C     6.0    36.84100    11.34400     0.00000
C     6.0    39.29700     8.50800     0.00000
C     6.0    38.06900     9.21700     0.00000
C     6.0    38.06900    10.63500     0.00000
C     6.0    39.29700    11.34400     0.00000
C     6.0     0.00000    12.76200     0.00000
C     6.0    -1.22800    13.47100     0.00000
C     6.0    -1.22800    14.88900     0.00000
C     6.0     0.00000    15.59800     0.00000
C     6.0     2.45600    12.76200     0.00000
C     6.0     1.22800    13.47100     0.00000
C     6.0     1.22800    14.88900     0.00000
C     6.0     2.45600    15.59800     0.00000
C     6.0     4.91200    12.76200     0.00000
C     6.0     3.68400    13.47100     0.00000
C     6.0     3.68400    14.88900     0.00000
C     6.0     4.91200    15.59800     0.00000
C     6.0     7.36800    12.76200     0.00000
C     6.0     6.14000    13.47100     0.00000
C     6.0     6.14000    14.88900     0.00000
C     6.0     7.36800    15.59800     0.00000
C     6.0     9.82400    12.76200     0.00000
C     6.0     8.59600    13.47100     0.00000
C     6.0     8.59600    14.88900     0.00000
C     6.0     9.82400    15.59800     0.00000
C     6.0    12.28000    12.76200     0.00000
C     6.0    11.05200    13.47100     0.00000
C     6.0    11.05200    14.88900     0.00000
C     6.0    12.28000    15.59800     0.00000
C     6.0    14.73600    12.76200     0.00000
C     6.0    13.50800    13.47100     0.00000
C     6.0    13.50800    14.88900     0.00000
C     6.0    14.73600    15.59800     0.00000
C     6.0    17.19200    12.76200     0.00000
C     6.0    15.96400    13.47100     0.00000
C     6.0    15.96400    14.88900     0.00000
C     6.0    17.19200    15.59800     0.00000
C     6.0    19.64800    12.76200     0.00000
C     6.0    18.42000    13.47100     0.00000
C     6.0    18.42000    14.88900     0.00000
C     6.0    19.64800    15.59800     0.00000
C     6.0    22.10400    12.76200     0.00000
C     6.0    20.87600    13.47100     0.00000
C     6.0    20.87600    14.88900     0.00000
C     6.0    22.10400    15.59800     0.00000
C     6.0    24.56000    12.76200     0.00000
C     6.0    23.33200    13.47100     0.00000
C     6.0    23.33200    14.88900     0.00000
C     6.0    24.56000    15.59800     0.00000
C     6.0    27.01700    12.76200     0.00000
C     6.0    25.78900    13.47100     0.00000
C     6.0    25.78900    14.88900     0.00000
C     6.0    27.01700    15.59800     0.00000
C     6.0    29.47300    12.76200     0.00000
C     6.0    28.24500    13.47100     0.00000
C     6.0    28.24500    14.88900     0.00000
C     6.0    29.47300    15.59800     0.00000
C     6.0    31.92900    12.76200     0.00000
C     6.0    30.70100    13.47100     0.00000
C     6.0    30.70100    14.88900     0.00000
C     6.0    31.92900    15.59800     0.00000
C     6.0    34.38500    12.76200     0.00000
C     6.0    33.15700    13.47100     0.00000
C     6.0    33.15700    14.88900     0.00000
C     6.0    34.38500    15.59800     0.00000
C     6.0    36.84100    12.76200     0.00000
C     6.0    35.61300    13.47100     0.00000
C     6.0    35.61300    14.88900     0.00000
C     6.0    36.84100    15.59800     0.00000
C     6.0    39.29700    12.76200     0.00000
C     6.0    38.06900    13.47100     0.00000
C     6.0    38.06900    14.88900     0.00000
C     6.0    39.29700    15.59800     0.00000
C     6.0     0.00000    17.01600     0.00000
C     6.0    -1.22800    17.72500     0.00000
C     6.0    -1.22800    19.14300     0.00000
C     6.0     0.00000    19.85200     0.00000
C     6.0     2.45600    17.01600     0.00000
C     6.0     1.22800    17.72500     0.00000
C     6.0     1.22800    19.14300     0.00000
C     6.0     2.45600    19.85200     0.00000
C     6.0     4.91200    17.01600     0.00000
C     6.0     3.68400    17.72500     0.00000
C     6.0     3.68400    19.14300     0.00000
C     6.0     4.91200    19.85200     0.00000
C     6.0     7.36800    17.01600     0.00000
C     6.0     6.14000    17.72500     0.00000
C     6.0     6.14000    19.14300     0.00000
C     6.0     7.36800    19.85200     0.00000
C     6.0     9.82400    17.01600     0.00000
C     6.0     8.59600    17.72500     0.00000
C     6.0     8.59600    19.14300     0.00000
C     6.0     9.82400    19.85200     0.00000
C     6.0    12.28000    17.01600     0.00000
C     6.0    11.05200    17.72500     0.00000
C     6.0    11.05200    19.14300     0.00000
C     6.0    12.28000    19.85200     0.00000
C     6.0    14.73600    17.01600     0.00000
C     6.0    13.50800    17.72500     0.00000
C     6.0    13.50800    19.14300     0.00000
C     6.0    14.73600    19.85200     0.00000
C     6.0    17.19200    17.01600     0.00000
C     6.0    15.96400    17.72500     0.00000
C     6.0    15.96400    19.14300     0.00000
C     6.0    17.19200    19.85200     0.00000
C     6.0    19.64800    17.01600     0.00000
C     6.0    18.42000    17.72500     0.00000
C     6.0    18.42000    19.14300     0.00000
C     6.0    19.64800    19.85200     0.00000
C     6.0    22.10400    17.01600     0.00000
C     6.0    20.87600    17.72500     0.00000
C     6.0    20.87600    19.14300     0.00000
C     6.0    22.10400    19.85200     0.00000
C     6.0    24.56000    17.01600     0.00000
C     6.0    23.33200    17.72500     0.00000
C     6.0    23.33200    19.14300     0.00000
C     6.0    24.56000    19.85200     0.00000
C     6.0    27.01700    17.01600     0.00000
C     6.0    25.78900    17.72500     0.00000
C     6.0    25.78900    19.14300     0.00000
C     6.0    27.01700    19.85200     0.00000
C     6.0    29.47300    17.01600     0.00000
C     6.0    28.24500    17.72500     0.00000
C     6.0    28.24500    19.14300     0.00000
C     6.0    29.47300    19.85200     0.00000
C     6.0    31.92900    17.01600     0.00000
C     6.0    30.70100    17.72500     0.00000
C     6.0    30.70100    19.14300     0.00000
C     6.0    31.92900    19.85200     0.00000
C     6.0    34.38500    17.01600     0.00000
C     6.0    33.15700    17.72500     0.00000
C     6.0    33.15700    19.14300     0.00000
C     6.0    34.38500    19.85200     0.00000
C     6.0    36.84100    17.01600     0.00000
C     6.0    35.61300    17.72500     0.00000
C     6.0    35.61300    19.14300     0.00000
C     6.0    36.84100    19.85200     0.00000
C     6.0    39.29700    17.01600     0.00000
C     6.0    38.06900    17.72500     0.00000
C     6.0    38.06900    19.14300     0.00000
C     6.0    39.29700    19.85200     0.00000
C     6.0     0.00000    21.27000     0.00000
C     6.0    -1.22800    21.97900     0.00000
C     6.0    -1.22800    23.39700     0.00000
C     6.0     0.00000    24.10600     0.00000
C     6.0     2.45600    21.27000     0.00000
C     6.0     1.22800    21.97900     0.00000
C     6.0     1.22800    23.39700     0.00000
C     6.0     2.45600    24.10600     0.00000
C     6.0     4.91200    21.27000     0.00000
C     6.0     3.68400    21.97900     0.00000
C     6.0     3.68400    23.39700     0.00000
C     6.0     4.91200    24.10600     0.00000
C     6.0     7.36800    21.27000     0.00000
C     6.0     6.14000    21.97900     0.00000
C     6.0     6.14000    23.39700     0.00000
C     6.0     7.36800    24.10600     0.00000
C     6.0     9.82400    21.27000     0.00000
C     6.0     8.59600    21.97900     0.00000
C     6.0     8.59600    23.39700     0.00000
C     6.0     9.82400    24.10600     0.00000
C     6.0    12.28000    21.27000     0.00000
C     6.0    11.05200    21.97900     0.00000
C     6.0    11.05200    23.39700     0.00000
C     6.0    12.28000    24.10600     0.00000
C     6.0    14.73600    21.27000     0.00000
C     6.0    13.50800    21.97900     0.00000
C     6.0    13.50800    23.39700     0.00000
C     6.0    14.73600    24.10600     0.00000
C     6.0    17.19200    21.27000     0.00000
C     6.0    15.96400    21.97900     0.00000
C     6.0    15.96400    23.39700     0.00000
C     6.0    17.19200    24.10600     0.00000
C     6.0    19.64800    21.27000     0.00000
C     6.0    18.42000    21.97900     0.00000
C     6.0    18.42000    23.39700     0.00000
C     6.0    19.64800    24.10600     0.00000
C     6.0    22.10400    21.27000     0.00000
C     6.0    20.87600    21.97900     0.00000
C     6.0    20.87600    23.39700     0.00000
C     6.0    22.10400    24.10600     0.00000
C     6.0    24.56000    21.27000     0.00000
C     6.0    23.33200    21.97900     0.00000
C     6.0    23.33200    23.39700     0.00000
C     6.0    24.56000    24.10600     0.00000
C     6.0    27.01700    21.27000     0.00000
C     6.0    25.78900    21.97900     0.00000
C     6.0    25.78900    23.39700     0.00000
C     6.0    27.01700    24.10600     0.00000
C     6.0    29.47300    21.27000     0.00000
C     6.0    28.24500    21.97900     0.00000
C     6.0    28.24500    23.39700     0.00000
C     6.0    29.47300    24.10600     0.00000
C     6.0    31.92900    21.27000     0.00000
C     6.0    30.70100    21.97900     0.00000
C     6.0    30.70100    23.39700     0.00000
C     6.0    31.92900    24.10600     0.00000
C     6.0    34.38500    21.27000     0.00000
C     6.0    33.15700    21.97900     0.00000
C     6.0    33.15700    23.39700     0.00000
C     6.0    34.38500    24.10600     0.00000
C     6.0    36.84100    21.27000     0.00000
C     6.0    35.61300    21.97900     0.00000
C     6.0    35.61300    23.39700     0.00000
C     6.0    36.84100    24.10600     0.00000
C     6.0    39.29700    21.27000     0.00000
C     6.0    38.06900    21.97900     0.00000
C     6.0    38.06900    23.39700     0.00000
C     6.0    39.29700    24.10600     0.00000
C     6.0     0.00000    25.52400     0.00000
C     6.0    -1.22800    26.23300     0.00000
C     6.0    -1.22800    27.65100     0.00000
C     6.0     0.00000    28.36000     0.00000
C     6.0     2.45600    25.52400     0.00000
C     6.0     1.22800    26.23300     0.00000
C     6.0     1.22800    27.65100     0.00000
C     6.0     2.45600    28.36000     0.00000
C     6.0     4.91200    25.52400     0.00000
C     6.0     3.68400    26.23300     0.00000
C     6.0     3.68400    27.65100     0.00000
C     6.0     4.91200    28.36000     0.00000
C     6.0     7.36800    25.52400     0.00000
C     6.0     6.14000    26.23300     0.00000
C     6.0     6.14000    27.65100     0.00000
C     6.0     7.36800    28.36000     0.00000
C     6.0     9.82400    25.52400     0.00000
C     6.0     8.59600    26.23300     0.00000
C     6.0     8.59600    27.65100     0.00000
C     6.0     9.82400    28.36000     0.00000
C     6.0    12.28000    25.52400     0.00000
C     6.0    11.05200    26.23300     0.00000
C     6.0    11.05200    27.65100     0.00000
C     6.0    12.28000    28.36000     0.00000
C     6.0    14.73600    25.52400     0.00000
C     6.0    13.50800    26.23300     0.00000
C     6.0    13.50800    27.65100     0.00000
C     6.0    14.73600    28.36000     0.00000
C     6.0    17.19200    25.52400     0.00000
C     6.0    15.96400    26.23300     0.00000
C     6.0    15.96400    27.65100     0.00000
C     6.0    17.19200    28.36000     0.00000
C     6.0    19.64800    25.52400     0.00000
C     6.0    18.42000    26.23300     0.00000
C     6.0    18.42000    27.65100     0.00000
C     6.0    19.64800    28.36000     0.00000
C     6.0    22.10400    25.52400     0.00000
C     6.0    20.87600    26.23300     0.00000
C     6.0    20.87600    27.65100     0.00000
C     6.0    22.10400    28.36000     0.00000
C     6.0    24.56000    25.52400     0.00000
C     6.0    23.33200    26.23300     0.00000
C     6.0    23.33200    27.65100     0.00000
C     6.0    24.56000    28.36000     0.00000
C     6.0    27.01700    25.52400     0.00000
C     6.0    25.78900    26.23300     0.00000
C     6.0    25.78900    27.65100     0.00000
C     6.0    27.01700    28.36000     0.00000
C     6.0    29.47300    25.52400     0.00000
C     6.0    28.24500    26.23300     0.00000
C     6.0    28.24500    27.65100     0.00000
C     6.0    29.47300    28.36000     0.00000
C     6.0    31.92900    25.52400     0.00000
C     6.0    30.70100    26.23300     0.00000
C     6.0    30.70100    27.65100     0.00000
C     6.0    31.92900    28.36000     0.00000
C     6.0    34.38500    25.52400     0.00000
C     6.0    33.15700    26.23300     0.00000
C     6.0    33.15700    27.65100     0.00000
C     6.0    34.38500    28.36000     0.00000
C     6.0    36.84100    25.52400     0.00000
C     6.0    35.61300    26.23300     0.00000
C     6.0    35.61300    27.65100     0.00000
C     6.0    36.84100    28.36000     0.00000
C     6.0    39.29700    25.52400     0.00000
C     6.0    38.06900    26.23300     0.00000
C     6.0    38.06900    27.65100     0.00000
C     6.0    39.29700    28.36000     0.00000
C     6.0     0.00000    29.77800     0.00000
C     6.0    -1.22800    30.48700     0.00000
C     6.0    -1.22800    31.90500     0.00000
C     6.0     0.00000    32.61400     0.00000
C     6.0     2.45600    29.77800     0.00000
C     6.0     1.22800    30.48700     0.00000
C     6.0     1.22800    31.90500     0.00000
C     6.0     2.45600    32.61400     0.00000
C     6.0     4.91200    29.77800     0.00000
C     6.0     3.68400    30.48700     0.00000
C     6.0     3.68400    31.90500     0.00000
C     6.0     4.91200    32.61400     0.00000
C     6.0     7.36800    29.77800     0.00000
C     6.0     6.14000    30.48700     0.00000
C     6.0     6.14000    31.90500     0.00000
C     6.0     7.36800    32.61400     0.00000
C     6.0     9.82400    29.77800     0.00000
C     6.0     8.59600    30.48700     0.00000
C     6.0     8.59600    31.90500     0.00000
C     6.0     9.82400    32.61400     0.00000
C     6.0    12.28000    29.77800     0.00000
C     6.0    11.05200    30.48700     0.00000
C     6.0    11.05200    31.90500     0.00000
C     6.0    12.28000    32.61400     0.00000
C     6.0    14.73600    29.77800     0.00000
C     6.0    13.50800    30.48700     0.00000
C     6.0    13.50800    31.90500     0.00000
C     6.0    14.73600    32.61400     0.00000
C     6.0    17.19200    29.77800     0.00000
C     6.0    15.96400    30.48700     0.00000
C     6.0    15.96400    31.90500     0.00000
C     6.0    17.19200    32.61400     0.00000
C     6.0    19.64800    29.77800     0.00000
C     6.0    18.42000    30.48700     0.00000
C     6.0    18.42000    31.90500     0.00000
C     6.0    19.64800    32.61400     0.00000
C     6.0    22.10400    29.77800     0.00000
C     6.0    20.87600    30.48700     0.00000
C     6.0    20.87600    31.90500     0.00000
C     6.0    22.10400    32.61400     0.00000
C     6.0    24.56000    29.77800     0.00000
C     6.0    23.33200    30.48700     0.00000
C     6.0    23.33200    31.90500     0.00000
C     6.0    24.56000    32.61400     0.00000
C     6.0    27.01700    29.77800     0.00000
C     6.0    25.78900    30.48700     0.00000
C     6.0    25.78900    31.90500     0.00000
C     6.0    27.01700    32.61400     0.00000
C     6.0    29.47300    29.77800     0.00000
C     6.0    28.24500    30.48700     0.00000
C     6.0    28.24500    31.90500     0.00000
C     6.0    29.47300    32.61400     0.00000
C     6.0    31.92900    29.77800     0.00000
C     6.0    30.70100    30.48700     0.00000
C     6.0    30.70100    31.90500     0.00000
C     6.0    31.92900    32.61400     0.00000
C     6.0    34.38500    29.77800     0.00000
C     6.0    33.15700    30.48700     0.00000
C     6.0    33.15700    31.90500     0.00000
C     6.0    34.38500    32.61400     0.00000
C     6.0    36.84100    29.77800     0.00000
C     6.0    35.61300    30.48700     0.00000
C     6.0    35.61300    31.90500     0.00000
C     6.0    36.84100    32.61400     0.00000
C     6.0    39.29700    29.77800     0.00000
C     6.0    38.06900    30.48700     0.00000
C     6.0    38.06900    31.90500     0.00000
C     6.0    39.29700    32.61400     0.00000
C     6.0     0.00000    34.03200     0.00000
C     6.0    -1.22800    34.74100     0.00000
C     6.0    -1.22800    36.15900     0.00000
C     6.0     0.00000    36.86800     0.00000
C     6.0     2.45600    34.03200     0.00000
C     6.0     1.22800    34.74100     0.00000
C     6.0     1.22800    36.15900     0.00000
C     6.0     2.45600    36.86800     0.00000
C     6.0     4.91200    34.03200     0.00000
C     6.0     3.68400    34.74100     0.00000
C     6.0     3.68400    36.15900     0.00000
C     6.0     4.91200    36.86800     0.00000
C     6.0     7.36800    34.03200     0.00000
C     6.0     6.14000    34.74100     0.00000
C     6.0     6.14000    36.15900     0.00000
C     6.0     7.36800    36.86800     0.00000
C     6.0     9.82400    34.03200     0.00000
C     6.0     8.59600    34.74100     0.00000
C     6.0     8.59600    36.15900     0.00000
C     6.0     9.82400    36.86800     0.00000
C     6.0    12.28000    34.03200     0.00000
C     6.0    11.05200    34.74100     0.00000
C     6.0    11.05200    36.15900     0.00000
C     6.0    12.28000    36.86800     0.00000
C     6.0    14.73600    34.03200     0.00000
C     6.0    13.50800    34.74100     0.00000
C     6.0    13.50800    36.15900     0.00000
C     6.0    14.73600    36.86800     0.00000
C     6.0    17.19200    34.03200     0.00000
C     6.0    15.96400    34.74100     0.00000
C     6.0    15.96400    36.15900     0.00000
C     6.0    17.19200    36.86800     0.00000
C     6.0    19.64800    34.03200     0.00000
C     6.0    18.42000    34.74100     0.00000
C     6.0    18.42000    36.15900     0.00000
C     6.0    19.64800    36.86800     0.00000
C     6.0    22.10400    34.03200     0.00000
C     6.0    20.87600    34.74100     0.00000
C     6.0    20.87600    36.15900     0.00000
C     6.0    22.10400    36.86800     0.00000
C     6.0    24.56000    34.03200     0.00000
C     6.0    23.33200    34.74100     0.00000
C     6.0    23.33200    36.15900     0.00000
C     6.0    24.56000    36.86800     0.00000
C     6.0    27.01700    34.03200     0.00000
C     6.0    25.78900    34.74100     0.00000
C     6.0    25.78900    36.15900     0.00000
C     6.0    27.01700    36.86800     0.00000
C     6.0    29.47300    34.03200     0.00000
C     6.0    28.24500    34.74100     0.00000
C     6.0    28.24500    36.15900     0.00000
C     6.0    29.47300    36.86800     0.00000
C     6.0    31.92900    34.03200     0.00000
C     6.0    30.70100    34.74100     0.00000
C     6.0    30.70100    36.15900     0.00000
C     6.0    31.92900    36.86800     0.00000
C     6.0    34.38500    34.03200     0.00000
C     6.0    33.15700    34.74100     0.00000
C     6.0    33.15700    36.15900     0.00000
C     6.0    34.38500    36.86800     0.00000
C     6.0    36.84100    34.03200     0.00000
C     6.0    35.61300    34.74100     0.00000
C     6.0    35.61300    36.15900     0.00000
C     6.0    36.84100    36.86800     0.00000
C     6.0    39.29700    34.03200     0.00000
C     6.0    38.06900    34.74100     0.00000
C     6.0    38.06900    36.15900     0.00000
C     6.0    39.29700    36.86800     0.00000
C     6.0     0.00000    38.28600     0.00000
C     6.0    -1.22800    38.99500     0.00000
C     6.0    -1.22800    40.41300     0.00000
C     6.0     0.00000    41.12200     0.00000
C     6.0     2.45600    38.28600     0.00000
C     6.0     1.22800    38.99500     0.00000
C     6.0     1.22800    40.41300     0.00000
C     6.0     2.45600    41.12200     0.00000
C     6.0     4.91200    38.28600     0.00000
C     6.0     3.68400    38.99500     0.00000
C     6.0     3.68400    40.41300     0.00000
C     6.0     4.91200    41.12200     0.00000
C     6.0     7.36800    38.28600     0.00000
C     6.0     6.14000    38.99500     0.00000
C     6.0     6.14000    40.41300     0.00000
C     6.0     7.36800    41.12200     0.00000
C     6.0     9.82400    38.28600     0.00000
C     6.0     8.59600    38.99500     0.00000
C     6.0     8.59600    40.41300     0.00000
C     6.0     9.82400    41.12200     0.00000
C     6.0    12.28000    38.28600     0.00000
C     6.0    11.05200    38.99500     0.00000
C     6.0    11.05200    40.41300     0.00000
C     6.0    12.28000    41.12200     0.00000
C     6.0    14.73600    38.28600     0.00000
C     6.0    13.50800    38.99500     0.00000
C     6.0    13.50800    40.41300     0.00000
C     6.0    14.73600    41.12200     0.00000
C     6.0    17.19200    38.28600     0.00000
C     6.0    15.96400    38.99500     0.00000
C     6.0    15.96400    40.41300     0.00000
C     6.0    17.19200    41.12200     0.00000
C     6.0    19.64800    38.28600     0.00000
C     6.0    18.42000    38.99500     0.00000
C     6.0    18.42000    40.41300     0.00000