 $CONTRL RUNTYP=ENERGY SCFTYP=RHF MAXIT=1 $END
 $CONTRL NPRINT=-5 ISPHER=1 $END
 $SYSTEM MODIO=15 $END
 $SYSTEM MWORDS=5500 $END
 $SCF DIRSCF=.T. NPUNCH=0 $END
 $BASIS GBASIS=N31 NGAUSS=6 NDFUNC=1 $END
 $INTGRL INTOMP=2 $END
 $DATA
Title
C1
C   6.0    0.000   0.000   0.000  
C   6.0   -1.228   0.709   0.000  
C   6.0   -1.228   2.127   0.000  
C   6.0    0.000   2.836   0.000  
C   6.0    2.456   0.000   0.000  
C   6.0    1.228   0.709   0.000  
C   6.0    1.228   2.127   0.000  
C   6.0    2.456   2.836   0.000  
C   6.0    4.912   0.000   0.000  
C   6.0    3.684   0.709   0.000  
C   6.0    3.684   2.127   0.000  
C   6.0    4.912   2.836   0.000  
C   6.0    7.368   0.000   0.000  
C   6.0    6.140   0.709   0.000  
C   6.0    6.140   2.127   0.000  
C   6.0    7.368   2.836   0.000  
C   6.0    9.824   0.000   0.000  
C   6.0    8.596   0.709   0.000  
C   6.0    8.596   2.127   0.000  
C   6.0    9.824   2.836   0.000  
C   6.0   12.280   0.000   0.000  
C   6.0   11.052   0.709   0.000  
C   6.0   11.052   2.127   0.000  
C   6.0   12.280   2.836   0.000  
C   6.0   14.736   0.000   0.000  
C   6.0   13.508   0.709   0.000  
C   6.0   13.508   2.127   0.000  
C   6.0   14.736   2.836   0.000  
C   6.0   17.192   0.000   0.000  
C   6.0   15.964   0.709   0.000  
C   6.0   15.964   2.127   0.000  
C   6.0   17.192   2.836   0.000  
C   6.0   19.648   0.000   0.000  
C   6.0   18.420   0.709   0.000  
C   6.0   18.420   2.127   0.000  
C   6.0   19.648   2.836   0.000  
C   6.0   22.104   0.000   0.000  
C   6.0   20.876   0.709   0.000  
C   6.0   20.876   2.127   0.000  
C   6.0   22.104   2.836   0.000  
C   6.0   24.560   0.000   0.000  
C   6.0   23.332   0.709   0.000  
C   6.0   23.332   2.127   0.000  
C   6.0   24.560   2.836   0.000  
C   6.0   27.017   0.000   0.000  
C   6.0   25.789   0.709   0.000  
C   6.0   25.789   2.127   0.000  
C   6.0   27.017   2.836   0.000  
C   6.0   29.473   0.000   0.000  
C   6.0   28.245   0.709   0.000  
C   6.0   28.245   2.127   0.000  
C   6.0   29.473   2.836   0.000  
C   6.0   31.929   0.000   0.000  
C   6.0   30.701   0.709   0.000  
C   6.0   30.701   2.127   0.000  
C   6.0   31.929   2.836   0.000  
C   6.0   34.385   0.000   0.000  
C   6.0   33.157   0.709   0.000  
C   6.0   33.157   2.127   0.000  
C   6.0   34.385   2.836   0.000  
C   6.0   36.841   0.000   0.000  
C   6.0   35.613   0.709   0.000  
C   6.0   35.613   2.127   0.000  
C   6.0   36.841   2.836   0.000  
C   6.0   39.297   0.000   0.000  
C   6.0   38.069   0.709   0.000  
C   6.0   38.069   2.127   0.000  
C   6.0   39.297   2.836   0.000  
C   6.0   41.753   0.000   0.000  
C   6.0   40.525   0.709   0.000  
C   6.0   40.525   2.127   0.000  
C   6.0   41.753   2.836   0.000  
C   6.0   44.209   0.000   0.000  
C   6.0   42.981   0.709   0.000  
C   6.0   42.981   2.127   0.000  
C   6.0   44.209   2.836   0.000  
C   6.0   46.665   0.000   0.000  
C   6.0   45.437   0.709   0.000  
C   6.0   45.437   2.127   0.000  
C   6.0   46.665   2.836   0.000  
C   6.0   49.121   0.000   0.000  
C   6.0   47.893   0.709   0.000  
C   6.0   47.893   2.127   0.000  
C   6.0   49.121   2.836   0.000  
C   6.0    0.000   4.254   0.000  
C   6.0   -1.228   4.963   0.000  
C   6.0   -1.228   6.381   0.000  
C   6.0    0.000   7.090   0.000  
C   6.0    2.456   4.254   0.000  
C   6.0    1.228   4.963   0.000  
C   6.0    1.228   6.381   0.000  
C   6.0    2.456   7.090   0.000  
C   6.0    4.912   4.254   0.000  
C   6.0    3.684   4.963   0.000  
C   6.0    3.684   6.381   0.000  
C   6.0    4.912   7.090   0.000  
C   6.0    7.368   4.254   0.000  
C   6.0    6.140   4.963   0.000  
C   6.0    6.140   6.381   0.000  
C   6.0    7.368   7.090   0.000  
C   6.0    9.824   4.254   0.000  
C   6.0    8.596   4.963   0.000  
C   6.0    8.596   6.381   0.000  
C   6.0    9.824   7.090   0.000  
C   6.0   12.280   4.254   0.000  
C   6.0   11.052   4.963   0.000  
C   6.0   11.052   6.381   0.000  
C   6.0   12.280   7.090   0.000  
C   6.0   14.736   4.254   0.000  
C   6.0   13.508   4.963   0.000  
C   6.0   13.508   6.381   0.000  
C   6.0   14.736   7.090   0.000  
C   6.0   17.192   4.254   0.000  
C   6.0   15.964   4.963   0.000  
C   6.0   15.964   6.381   0.000  
C   6.0   17.192   7.090   0.000  
C   6.0   19.648   4.254   0.000  
C   6.0   18.420   4.963   0.000  
C   6.0   18.420   6.381   0.000  
C   6.0   19.648   7.090   0.000  
C   6.0   22.104   4.254   0.000  
C   6.0   20.876   4.963   0.000  
C   6.0   20.876   6.381   0.000  
C   6.0   22.104   7.090   0.000  
C   6.0   24.560   4.254   0.000  
C   6.0   23.332   4.963   0.000  
C   6.0   23.332   6.381   0.000  
C   6.0   24.560   7.090   0.000  
C   6.0   27.017   4.254   0.000  
C   6.0   25.789   4.963   0.000  
C   6.0   25.789   6.381   0.000  
C   6.0   27.017   7.090   0.000  
C   6.0   29.473   4.254   0.000  
C   6.0   28.245   4.963   0.000  
C   6.0   28.245   6.381   0.000  
C   6.0   29.473   7.090   0.000  
C   6.0   31.929   4.254   0.000  
C   6.0   30.701   4.963   0.000  
C   6.0   30.701   6.381   0.000  
C   6.0   31.929   7.090   0.000  
C   6.0   34.385   4.254   0.000  
C   6.0   33.157   4.963   0.000  
C   6.0   33.157   6.381   0.000  
C   6.0   34.385   7.090   0.000  
C   6.0   36.841   4.254   0.000  
C   6.0   35.613   4.963   0.000  
C   6.0   35.613   6.381   0.000  
C   6.0   36.841   7.090   0.000  
C   6.0   39.297   4.254   0.000  
C   6.0   38.069   4.963   0.000  
C   6.0   38.069   6.381   0.000  
C   6.0   39.297   7.090   0.000  
C   6.0   41.753   4.254   0.000  
C   6.0   40.525   4.963   0.000  
C   6.0   40.525   6.381   0.000  
C   6.0   41.753   7.090   0.000  
C   6.0   44.209   4.254   0.000  
C   6.0   42.981   4.963   0.000  
C   6.0   42.981   6.381   0.000  
C   6.0   44.209   7.090   0.000  
C   6.0   46.665   4.254   0.000  
C   6.0   45.437   4.963   0.000  
C   6.0   45.437   6.381   0.000  
C   6.0   46.665   7.090   0.000  
C   6.0   49.121   4.254   0.000  
C   6.0   47.893   4.963   0.000  
C   6.0   47.893   6.381   0.000  
C   6.0   49.121   7.090   0.000  
C   6.0    0.000   8.508   0.000  
C   6.0   -1.228   9.217   0.000  
C   6.0   -1.228  10.635   0.000  
C   6.0    0.000  11.344   0.000  
C   6.0    2.456   8.508   0.000  
C   6.0    1.228   9.217   0.000  
C   6.0    1.228  10.635   0.000  
C   6.0    2.456  11.344   0.000  
C   6.0    4.912   8.508   0.000  
C   6.0    3.684   9.217   0.000  
C   6.0    3.684  10.635   0.000  
C   6.0    4.912  11.344   0.000  
C   6.0    7.368   8.508   0.000  
C   6.0    6.140   9.217   0.000  
C   6.0    6.140  10.635   0.000  
C   6.0    7.368  11.344   0.000  
C   6.0    9.824   8.508   0.000  
C   6.0    8.596   9.217   0.000  
C   6.0    8.596  10.635   0.000  
C   6.0    9.824  11.344   0.000  
C   6.0   12.280   8.508   0.000  
C   6.0   11.052   9.217   0.000  
C   6.0   11.052  10.635   0.000  
C   6.0   12.280  11.344   0.000  
C   6.0   14.736   8.508   0.000  
C   6.0   13.508   9.217   0.000  
C   6.0   13.508  10.635   0.000  
C   6.0   14.736  11.344   0.000  
C   6.0   17.192   8.508   0.000  
C   6.0   15.964   9.217   0.000  
C   6.0   15.964  10.635   0.000  
C   6.0   17.192  11.344   0.000  
C   6.0   19.648   8.508   0.000  
C   6.0   18.420   9.217   0.000  
C   6.0   18.420  10.635   0.000  
C   6.0   19.648  11.344   0.000  
C   6.0   22.104   8.508   0.000  
C   6.0   20.876   9.217   0.000  
C   6.0   20.876  10.635   0.000  
C   6.0   22.104  11.344   0.000  
C   6.0   24.560   8.508   0.000  
C   6.0   23.332   9.217   0.000  
C   6.0   23.332  10.635   0.000  
C   6.0   24.560  11.344   0.000  
C   6.0   27.017   8.508   0.000  
C   6.0   25.789   9.217   0.000  
C   6.0   25.789  10.635   0.000  
C   6.0   27.017  11.344   0.000  
C   6.0   29.473   8.508   0.000  
C   6.0   28.245   9.217   0.000  
C   6.0   28.245  10.635   0.000  
C   6.0   29.473  11.344   0.000  
C   6.0   31.929   8.508   0.000  
C   6.0   30.701   9.217   0.000  
C   6.0   30.701  10.635   0.000  
C   6.0   31.929  11.344   0.000  
C   6.0   34.385   8.508   0.000  
C   6.0   33.157   9.217   0.000  
C   6.0   33.157  10.635   0.000  
C   6.0   34.385  11.344   0.000  
C   6.0   36.841   8.508   0.000  
C   6.0   35.613   9.217   0.000  
C   6.0   35.613  10.635   0.000  
C   6.0   36.841  11.344   0.000  
C   6.0   39.297   8.508   0.000  
C   6.0   38.069   9.217   0.000  
C   6.0   38.069  10.635   0.000  
C   6.0   39.297  11.344   0.000  
C   6.0   41.753   8.508   0.000  
C   6.0   40.525   9.217   0.000  
C   6.0   40.525  10.635   0.000  
C   6.0   41.753  11.344   0.000  
C   6.0   44.209   8.508   0.000  
C   6.0   42.981   9.217   0.000  
C   6.0   42.981  10.635   0.000  
C   6.0   44.209  11.344   0.000  
C   6.0   46.665   8.508   0.000  
C   6.0   45.437   9.217   0.000  
C   6.0   45.437  10.635   0.000  
C   6.0   46.665  11.344   0.000  
C   6.0   49.121   8.508   0.000  
C   6.0   47.893   9.217   0.000  
C   6.0   47.893  10.635   0.000  
C   6.0   49.121  11.344   0.000  
C   6.0    0.000  12.762   0.000  
C   6.0   -1.228  13.471   0.000  
C   6.0   -1.228  14.889   0.000  
C   6.0    0.000  15.598   0.000  
C   6.0    2.456  12.762   0.000  
C   6.0    1.228  13.471   0.000  
C   6.0    1.228  14.889   0.000  
C   6.0    2.456  15.598   0.000  
C   6.0    4.912  12.762   0.000  
C   6.0    3.684  13.471   0.000  
C   6.0    3.684  14.889   0.000  
C   6.0    4.912  15.598   0.000  
C   6.0    7.368  12.762   0.000  
C   6.0    6.140  13.471   0.000  
C   6.0    6.140  14.889   0.000  
C   6.0    7.368  15.598   0.000  
C   6.0    9.824  12.762   0.000  
C   6.0    8.596  13.471   0.000  
C   6.0    8.596  14.889   0.000  
C   6.0    9.824  15.598   0.000  
C   6.0   12.280  12.762   0.000  
C   6.0   11.052  13.471   0.000  
C   6.0   11.052  14.889   0.000  
C   6.0   12.280  15.598   0.000  
C   6.0   14.736  12.762   0.000  
C   6.0   13.508  13.471   0.000  
C   6.0   13.508  14.889   0.000  
C   6.0   14.736  15.598   0.000  
C   6.0   17.192  12.762   0.000  
C   6.0   15.964  13.471   0.000  
C   6.0   15.964  14.889   0.000  
C   6.0   17.192  15.598   0.000  
C   6.0   19.648  12.762   0.000  
C   6.0   18.420  13.471   0.000  
C   6.0   18.420  14.889   0.000  
C   6.0   19.648  15.598   0.000  
C   6.0   22.104  12.762   0.000  
C   6.0   20.876  13.471   0.000  
C   6.0   20.876  14.889   0.000  
C   6.0   22.104  15.598   0.000  
C   6.0   24.560  12.762   0.000  
C   6.0   23.332  13.471   0.000  
C   6.0   23.332  14.889   0.000  
C   6.0   24.560  15.598   0.000  
C   6.0   27.017  12.762   0.000  
C   6.0   25.789  13.471   0.000  
C   6.0   25.789  14.889   0.000  
C   6.0   27.017  15.598   0.000  
C   6.0   29.473  12.762   0.000  
C   6.0   28.245  13.471   0.000  
C   6.0   28.245  14.889   0.000  
C   6.0   29.473  15.598   0.000  
C   6.0   31.929  12.762   0.000  
C   6.0   30.701  13.471   0.000  
C   6.0   30.701  14.889   0.000  
C   6.0   31.929  15.598   0.000  
C   6.0   34.385  12.762   0.000  
C   6.0   33.157  13.471   0.000  
C   6.0   33.157  14.889   0.000  
C   6.0   34.385  15.598   0.000  
C   6.0   36.841  12.762   0.000  
C   6.0   35.613  13.471   0.000  
C   6.0   35.613  14.889   0.000  
C   6.0   36.841  15.598   0.000  
C   6.0   39.297  12.762   0.000  
C   6.0   38.069  13.471   0.000  
C   6.0   38.069  14.889   0.000  
C   6.0   39.297  15.598   0.000  
C   6.0   41.753  12.762   0.000  
C   6.0   40.525  13.471   0.000  
C   6.0   40.525  14.889   0.000  
C   6.0   41.753  15.598   0.000  
C   6.0   44.209  12.762   0.000  
C   6.0   42.981  13.471   0.000  
C   6.0   42.981  14.889   0.000  
C   6.0   44.209  15.598   0.000  
C   6.0   46.665  12.762   0.000  
C   6.0   45.437  13.471   0.000  
C   6.0   45.437  14.889   0.000  
C   6.0   46.665  15.598   0.000  
C   6.0   49.121  12.762   0.000  
C   6.0   47.893  13.471   0.000  
C   6.0   47.893  14.889   0.000  
C   6.0   49.121  15.598   0.000  
C   6.0    0.000  17.016   0.000  
C   6.0   -1.228  17.725   0.000  
C   6.0   -1.228  19.143   0.000  
C   6.0    0.000  19.852   0.000  
C   6.0    2.456  17.016   0.000  
C   6.0    1.228  17.725   0.000  
C   6.0    1.228  19.143   0.000  
C   6.0    2.456  19.852   0.000  
C   6.0    4.912  17.016   0.000  
C   6.0    3.684  17.725   0.000  
C   6.0    3.684  19.143   0.000  
C   6.0    4.912  19.852   0.000  
C   6.0    7.368  17.016   0.000  
C   6.0    6.140  17.725   0.000  
C   6.0    6.140  19.143   0.000  
C   6.0    7.368  19.852   0.000  
C   6.0    9.824  17.016   0.000  
C   6.0    8.596  17.725   0.000  
C   6.0    8.596  19.143   0.000  
C   6.0    9.824  19.852   0.000  
C   6.0   12.280  17.016   0.000  
C   6.0   11.052  17.725   0.000  
C   6.0   11.052  19.143   0.000  
C   6.0   12.280  19.852   0.000  
C   6.0   14.736  17.016   0.000  
C   6.0   13.508  17.725   0.000  
C   6.0   13.508  19.143   0.000  
C   6.0   14.736  19.852   0.000  
C   6.0   17.192  17.016   0.000  
C   6.0   15.964  17.725   0.000  
C   6.0   15.964  19.143   0.000  
C   6.0   17.192  19.852   0.000  
C   6.0   19.648  17.016   0.000  
C   6.0   18.420  17.725   0.000  
C   6.0   18.420  19.143   0.000  
C   6.0   19.648  19.852   0.000  
C   6.0   22.104  17.016   0.000  
C   6.0   20.876  17.725   0.000  
C   6.0   20.876  19.143   0.000  
C   6.0   22.104  19.852   0.000  
C   6.0   24.560  17.016   0.000  
C   6.0   23.332  17.725   0.000  
C   6.0   23.332  19.143   0.000  
C   6.0   24.560  19.852   0.000  
C   6.0   27.017  17.016   0.000  
C   6.0   25.789  17.725   0.000  
C   6.0   25.789  19.143   0.000  
C   6.0   27.017  19.852   0.000  
C   6.0   29.473  17.016   0.000  
C   6.0   28.245  17.725   0.000  
C   6.0   28.245  19.143   0.000  
C   6.0   29.473  19.852   0.000  
C   6.0   31.929  17.016   0.000  
C   6.0   30.701  17.725   0.000  
C   6.0   30.701  19.143   0.000  
C   6.0   31.929  19.852   0.000  
C   6.0   34.385  17.016   0.000  
C   6.0   33.157  17.725   0.000  
C   6.0   33.157  19.143   0.000  
C   6.0   34.385  19.852   0.000  
C   6.0   36.841  17.016   0.000  
C   6.0   35.613  17.725   0.000  
C   6.0   35.613  19.143   0.000  
C   6.0   36.841  19.852   0.000  
C   6.0   39.297  17.016   0.000  
C   6.0   38.069  17.725   0.000  
C   6.0   38.069  19.143   0.000  
C   6.0   39.297  19.852   0.000  
C   6.0   41.753  17.016   0.000  
C   6.0   40.525  17.725   0.000  
C   6.0   40.525  19.143   0.000  
C   6.0   41.753  19.852   0.000  
C   6.0   44.209  17.016   0.000  
C   6.0   42.981  17.725   0.000  
C   6.0   42.981  19.143   0.000  
C   6.0   44.209  19.852   0.000  
C   6.0   46.665  17.016   0.000  
C   6.0   45.437  17.725   0.000  
C   6.0   45.437  19.143   0.000  
C   6.0   46.665  19.852   0.000  
C   6.0   49.121  17.016   0.000  
C   6.0   47.893  17.725   0.000  
C   6.0   47.893  19.143   0.000  
C   6.0   49.121  19.852   0.000  
C   6.0    0.000  21.270   0.000  
C   6.0   -1.228  21.979   0.000  
C   6.0   -1.228  23.397   0.000  
C   6.0    0.000  24.106   0.000  
C   6.0    2.456  21.270   0.000  
C   6.0    1.228  21.979   0.000  
C   6.0    1.228  23.397   0.000  
C   6.0    2.456  24.106   0.000  
C   6.0    4.912  21.270   0.000  
C   6.0    3.684  21.979   0.000  
C   6.0    3.684  23.397   0.000  
C   6.0    4.912  24.106   0.000  
C   6.0    7.368  21.270   0.000  
C   6.0    6.140  21.979   0.000  
C   6.0    6.140  23.397   0.000  
C   6.0    7.368  24.106   0.000  
C   6.0    9.824  21.270   0.000  
C   6.0    8.596  21.979   0.000  
C   6.0    8.596  23.397   0.000  
C   6.0    9.824  24.106   0.000  
C   6.0   12.280  21.270   0.000  
C   6.0   11.052  21.979   0.000  
C   6.0   11.052  23.397   0.000  
C   6.0   12.280  24.106   0.000  
C   6.0   14.736  21.270   0.000  
C   6.0   13.508  21.979   0.000  
C   6.0   13.508  23.397   0.000  
C   6.0   14.736  24.106   0.000  
C   6.0   17.192  21.270   0.000  
C   6.0   15.964  21.979   0.000  
C   6.0   15.964  23.397   0.000  
C   6.0   17.192  24.106   0.000  
C   6.0   19.648  21.270   0.000  
C   6.0   18.420  21.979   0.000  
C   6.0   18.420  23.397   0.000  
C   6.0   19.648  24.106   0.000  
C   6.0   22.104  21.270   0.000  
C   6.0   20.876  21.979   0.000  
C   6.0   20.876  23.397   0.000  
C   6.0   22.104  24.106   0.000  
C   6.0   24.560  21.270   0.000  
C   6.0   23.332  21.979   0.000  
C   6.0   23.332  23.397   0.000  
C   6.0   24.560  24.106   0.000  
C   6.0   27.017  21.270   0.000  
C   6.0   25.789  21.979   0.000  
C   6.0   25.789  23.397   0.000  
C   6.0   27.017  24.106   0.000  
C   6.0   29.473  21.270   0.000  
C   6.0   28.245  21.979   0.000  
C   6.0   28.245  23.397   0.000  
C   6.0   29.473  24.106   0.000  
C   6.0   31.929  21.270   0.000  
C   6.0   30.701  21.979   0.000  
C   6.0   30.701  23.397   0.000  
C   6.0   31.929  24.106   0.000  
C   6.0   34.385  21.270   0.000  
C   6.0   33.157  21.979   0.000  
C   6.0   33.157  23.397   0.000  
C   6.0   34.385  24.106   0.000  
C   6.0   36.841  21.270   0.000  
C   6.0   35.613  21.979   0.000  
C   6.0   35.613  23.397   0.000  
C   6.0   36.841  24.106   0.000  
C   6.0   39.297  21.270   0.000  
C   6.0   38.069  21.979   0.000  
C   6.0   38.069  23.397   0.000  
C   6.0   39.297  24.106   0.000  
C   6.0   41.753  21.270   0.000  
C   6.0   40.525  21.979   0.000  
C   6.0   40.525  23.397   0.000  
C   6.0   41.753  24.106   0.000  
C   6.0   44.209  21.270   0.000  
C   6.0   42.981  21.979   0.000  
C   6.0   42.981  23.397   0.000  
C   6.0   44.209  24.106   0.000  
C   6.0   46.665  21.270   0.000  
C   6.0   45.437  21.979   0.000  
C   6.0   45.437  23.397   0.000  
C   6.0   46.665  24.106   0.000  
C   6.0   49.121  21.270   0.000  
C   6.0   47.893  21.979   0.000  
C   6.0   47.893  23.397   0.000  
C   6.0   49.121  24.106   0.000  
C   6.0    0.000  25.524   0.000  
C   6.0   -1.228  26.233   0.000  
C   6.0   -1.228  27.651   0.000  
C   6.0    0.000  28.360   0.000  
C   6.0    2.456  25.524   0.000  
C   6.0    1.228  26.233   0.000  
C   6.0    1.228  27.651   0.000  
C   6.0    2.456  28.360   0.000  
C   6.0    4.912  25.524   0.000  
C   6.0    3.684  26.233   0.000  
C   6.0    3.684  27.651   0.000  
C   6.0    4.912  28.360   0.000  
C   6.0    7.368  25.524   0.000  
C   6.0    6.140  26.233   0.000  
C   6.0    6.140  27.651   0.000  
C   6.0    7.368  28.360   0.000  
C   6.0    9.824  25.524   0.000  
C   6.0    8.596  26.233   0.000  
C   6.0    8.596  27.651   0.000  
C   6.0    9.824  28.360   0.000  
C   6.0   12.280  25.524   0.000  
C   6.0   11.052  26.233   0.000  
C   6.0   11.052  27.651   0.000  
C   6.0   12.280  28.360   0.000  
C   6.0   14.736  25.524   0.000  
C   6.0   13.508  26.233   0.000  
C   6.0   13.508  27.651   0.000  
C   6.0   14.736  28.360   0.000  
C   6.0   17.192  25.524   0.000  
C   6.0   15.964  26.233   0.000  
C   6.0   15.964  27.651   0.000  
C   6.0   17.192  28.360   0.000  
C   6.0   19.648  25.524   0.000  
C   6.0   18.420  26.233   0.000  
C   6.0   18.420  27.651   0.000  
C   6.0   19.648  28.360   0.000  
C   6.0   22.104  25.524   0.000  
C   6.0   20.876  26.233   0.000  
C   6.0   20.876  27.651   0.000  
C   6.0   22.104  28.360   0.000  
C   6.0   24.560  25.524   0.000  
C   6.0   23.332  26.233   0.000  
C   6.0   23.332  27.651   0.000  
C   6.0   24.560  28.360   0.000  
C   6.0   27.017  25.524   0.000  
C   6.0   25.789  26.233   0.000  
C   6.0   25.789  27.651   0.000  
C   6.0   27.017  28.360   0.000  
C   6.0   29.473  25.524   0.000  
C   6.0   28.245  26.233   0.000  
C   6.0   28.245  27.651   0.000  
C   6.0   29.473  28.360   0.000  
C   6.0   31.929  25.524   0.000  
C   6.0   30.701  26.233   0.000  
C   6.0   30.701  27.651   0.000  
C   6.0   31.929  28.360   0.000  
C   6.0   34.385  25.524   0.000  
C   6.0   33.157  26.233   0.000  
C   6.0   33.157  27.651   0.000  
C   6.0   34.385  28.360   0.000  
C   6.0   36.841  25.524   0.000  
C   6.0   35.613  26.233   0.000  
C   6.0   35.613  27.651   0.000  
C   6.0   36.841  28.360   0.000  
C   6.0   39.297  25.524   0.000  
C   6.0   38.069  26.233   0.000  
C   6.0   38.069  27.651   0.000  
C   6.0   39.297  28.360   0.000  
C   6.0   41.753  25.524   0.000  
C   6.0   40.525  26.233   0.000  
C   6.0   40.525  27.651   0.000  
C   6.0   41.753  28.360   0.000  
C   6.0   44.209  25.524   0.000  
C   6.0   42.981  26.233   0.000  
C   6.0   42.981  27.651   0.000  
C   6.0   44.209  28.360   0.000  
C   6.0   46.665  25.524   0.000  
C   6.0   45.437  26.233   0.000  
C   6.0   45.437  27.651   0.000  
C   6.0   46.665  28.360   0.000  
C   6.0   49.121  25.524   0.000  
C   6.0   47.893  26.233   0.000  
C   6.0   47.893  27.651   0.000  
C   6.0   49.121  28.360   0.000  
C   6.0    0.000  29.778   0.000  
C   6.0   -1.228  30.487   0.000  
C   6.0   -1.228  31.905   0.000  
C   6.0    0.000  32.614   0.000  
C   6.0    2.456  29.778   0.000  
C   6.0    1.228  30.487   0.000  
C   6.0    1.228  31.905   0.000  
C   6.0    2.456  32.614   0.000  
C   6.0    4.912  29.778   0.000  
C   6.0    3.684  30.487   0.000  
C   6.0    3.684  31.905   0.000  
C   6.0    4.912  32.614   0.000  
C   6.0    7.368  29.778   0.000  
C   6.0    6.140  30.487   0.000  
C   6.0    6.140  31.905   0.000  
C   6.0    7.368  32.614   0.000  
C   6.0    9.824  29.778   0.000  
C   6.0    8.596  30.487   0.000  
C   6.0    8.596  31.905   0.000  
C   6.0    9.824  32.614   0.000  
C   6.0   12.280  29.778   0.000  
C   6.0   11.052  30.487   0.000  
C   6.0   11.052  31.905   0.000  
C   6.0   12.280  32.614   0.000  
C   6.0   14.736  29.778   0.000  
C   6.0   13.508  30.487   0.000  
C   6.0   13.508  31.905   0.000  
C   6.0   14.736  32.614   0.000  
C   6.0   17.192  29.778   0.000  
C   6.0   15.964  30.487   0.000  
C   6.0   15.964  31.905   0.000  
C   6.0   17.192  32.614   0.000  
C   6.0   19.648  29.778   0.000  
C   6.0   18.420  30.487   0.000  
C   6.0   18.420  31.905   0.000  
C   6.0   19.648  32.614   0.000  
C   6.0   22.104  29.778   0.000  
C   6.0   20.876  30.487   0.000  
C   6.0   20.876  31.905   0.000  
C   6.0   22.104  32.614   0.000  
C   6.0   24.560  29.778   0.000  
C   6.0   23.332  30.487   0.000  
C   6.0   23.332  31.905   0.000  
C   6.0   24.560  32.614   0.000  
C   6.0   27.017  29.778   0.000  
C   6.0   25.789  30.487   0.000  
C   6.0   25.789  31.905   0.000  
C   6.0   27.017  32.614   0.000  
C   6.0   29.473  29.778   0.000  
C   6.0   28.245  30.487   0.000  
C   6.0   28.245  31.905   0.000  
C   6.0   29.473  32.614   0.000  
C   6.0   31.929  29.778   0.000  
C   6.0   30.701  30.487   0.000  
C   6.0   30.701  31.905   0.000  
C   6.0   31.929  32.614   0.000  
C   6.0   34.385  29.778   0.000  
C   6.0   33.157  30.487   0.000  
C   6.0   33.157  31.905   0.000  
C   6.0   34.385  32.614   0.000  
C   6.0   36.841  29.778   0.000  
C   6.0   35.613  30.487   0.000  
C   6.0   35.613  31.905   0.000  
C   6.0   36.841  32.614   0.000  
C   6.0   39.297  29.778   0.000  
C   6.0   38.069  30.487   0.000  
C   6.0   38.069  31.905   0.000  
C   6.0   39.297  32.614   0.000  
C   6.0   41.753  29.778   0.000  
C   6.0   40.525  30.487   0.000  
C   6.0   40.525  31.905   0.000  
C   6.0   41.753  32.614   0.000  
C   6.0   44.209  29.778   0.000  
C   6.0   42.981  30.487   0.000  
C   6.0   42.981  31.905   0.000  
C   6.0   44.209  32.614   0.000  
C   6.0   46.665  29.778   0.000  
C   6.0   45.437  30.487   0.000  
C   6.0   45.437  31.905   0.000  
C   6.0   46.665  32.614   0.000  
C   6.0   49.121  29.778   0.000  
C   6.0   47.893  30.487   0.000  
C   6.0   47.893  31.905   0.000  
C   6.0   49.121  32.614   0.000  
C   6.0    0.000  34.032   0.000  
C   6.0   -1.228  34.741   0.000  
C   6.0   -1.228  36.159   0.000  
C   6.0    0.000  36.868   0.000  
C   6.0    2.456  34.032   0.000  
C   6.0    1.228  34.741   0.000  
C   6.0    1.228  36.159   0.000  
C   6.0    2.456  36.868   0.000  
C   6.0    4.912  34.032   0.000  
C   6.0    3.684  34.741   0.000  
C   6.0    3.684  36.159   0.000  
C   6.0    4.912  36.868   0.000  
C   6.0    7.368  34.032   0.000  
C   6.0    6.140  34.741   0.000  
C   6.0    6.140  36.159   0.000  
C   6.0    7.368  36.868   0.000  
C   6.0    9.824  34.032   0.000  
C   6.0    8.596  34.741   0.000  
C   6.0    8.596  36.159   0.000  
C   6.0    9.824  36.868   0.000  
C   6.0   12.280  34.032   0.000  
C   6.0   11.052  34.741   0.000  
C   6.0   11.052  36.159   0.000  
C   6.0   12.280  36.868   0.000  
C   6.0   14.736  34.032   0.000  
C   6.0   13.508  34.741   0.000  
C   6.0   13.508  36.159   0.000  
C   6.0   14.736  36.868   0.000  
C   6.0   17.192  34.032   0.000  
C   6.0   15.964  34.741   0.000  
C   6.0   15.964  36.159   0.000  
C   6.0   17.192  36.868   0.000  
C   6.0   19.648  34.032   0.000  
C   6.0   18.420  34.741   0.000  
C   6.0   18.420  36.159   0.000  
C   6.0   19.648  36.868   0.000  
C   6.0   22.104  34.032   0.000  
C   6.0   20.876  34.741   0.000  
C   6.0   20.876  36.159   0.000  
C   6.0   22.104  36.868   0.000  
C   6.0   24.560  34.032   0.000  
C   6.0   23.332  34.741   0.000  
C   6.0   23.332  36.159   0.000  
C   6.0   24.560  36.868   0.000  
C   6.0   27.017  34.032   0.000  
C   6.0   25.789  34.741   0.000  
C   6.0   25.789  36.159   0.000  
C   6.0   27.017  36.868   0.000  
C   6.0   29.473  34.032   0.000  
C   6.0   28.245  34.741   0.000  
C   6.0   28.245  36.159   0.000  
C   6.0   29.473  36.868   0.000  
C   6.0   31.929  34.032   0.000  
C   6.0   30.701  34.741   0.000  
C   6.0   30.701  36.159   0.000  
C   6.0   31.929  36.868   0.000  
C   6.0   34.385  34.032   0.000  
C   6.0   33.157  34.741   0.000  
C   6.0   33.157  36.159   0.000  
C   6.0   34.385  36.868   0.000  
C   6.0   36.841  34.032   0.000  
C   6.0   35.613  34.741   0.000  
C   6.0   35.613  36.159   0.000  
C   6.0   36.841  36.868   0.000  
C   6.0   39.297  34.032   0.000  
C   6.0   38.069  34.741   0.000  
C   6.0   38.069  36.159   0.000  
C   6.0   39.297  36.868   0.000  
C   6.0   41.753  34.032   0.000  
C   6.0   40.525  34.741   0.000  
C   6.0   40.525  36.159   0.000  
C   6.0   41.753  36.868   0.000  
C   6.0   44.209  34.032   0.000  
C   6.0   42.981  34.741   0.000  
C   6.0   42.981  36.159   0.000  
C   6.0   44.209  36.868   0.000  
C   6.0   46.665  34.032   0.000  
C   6.0   45.437  34.741   0.000  
C   6.0   45.437  36.159   0.000  
C   6.0   46.665  36.868   0.000  
C   6.0   49.121  34.032   0.000  
C   6.0   47.893  34.741   0.000  
C   6.0   47.893  36.159   0.000  
C   6.0   49.121  36.868   0.000  
C   6.0    0.000  38.286   0.000  
C   6.0   -1.228  38.995   0.000  
C   6.0   -1.228  40.413   0.000  
C   6.0    0.000  41.122   0.000  
C   6.0    2.456  38.286   0.000  
C   6.0    1.228  38.995   0.000  
C   6.0    1.228  40.413   0.000  
C   6.0    2.456  41.122   0.000  
C   6.0    4.912  38.286   0.000  
C   6.0    3.684  38.995   0.000  
C   6.0    3.684  40.413   0.000  
C   6.0    4.912  41.122   0.000  
C   6.0    7.368  38.286   0.000  
C   6.0    6.140  38.995   0.000  
C   6.0    6.140  40.413   0.000  
C   6.0    7.368  41.122   0.000  
C   6.0    9.824  38.286   0.000  
C   6.0    8.596  38.995   0.000  
C   6.0    8.596  40.413   0.000  
C   6.0    9.824  41.122   0.000  
C   6.0   12.280  38.286   0.000  
C   6.0   11.052  38.995   0.000  
C   6.0   11.052  40.413   0.000  
C   6.0   12.280  41.122   0.000  
C   6.0   14.736  38.286   0.000  
C   6.0   13.508  38.995   0.000  
C   6.0   13.508  40.413   0.000  
C   6.0   14.736  41.122   0.000  
C   6.0   17.192  38.286   0.000  
C   6.0   15.964  38.995   0.000  
C   6.0   15.964  40.413   0.000  
C   6.0   17.192  41.122   0.000  
C   6.0   19.648  38.286   0.000  
C   6.0   18.420  38.995   0.000  
C   6.0   18.420  40.413   0.000  
C   6.0   19.648  41.122   0.000  
C   6.0   22.104  38.286   0.000  
C   6.0   20.876  38.995   0.000  
C   6.0   20.876  40.413   0.000  
C   6.0   22.104  41.122   0.000  
C   6.0   24.560  38.286   0.000  
C   6.0   23.332  38.995   0.000  
C   6.0   23.332  40.413   0.000  
C   6.0   24.560  41.122   0.000  
C   6.0   27.017  38.286   0.000  
C   6.0   25.789  38.995   0.000  
C   6.0   25.789  40.413   0.000  
C   6.0   27.017  41.122   0.000  
C   6.0   29.473  38.286   0.000  
C   6.0   28.245  38.995   0.000  
C   6.0   28.245  40.413   0.000  
C   6.0   29.473  41.122   0.000  
C   6.0   31.929  38.286   0.000  
C   6.0   30.701  38.995   0.000  
C   6.0   30.701  40.413   0.000  
C   6.0   31.929  41.122   0.000  
C   6.0   34.385  38.286   0.000  
C   6.0   33.157  38.995   0.000  
C   6.0   33.157  40.413   0.000  
C   6.0   34.385  41.122   0.000  
C   6.0   36.841  38.286   0.000  
C   6.0   35.613  38.995   0.000  
C   6.0   35.613  40.413   0.000  
C   6.0   36.841  41.122   0.000  
C   6.0   39.297  38.286   0.000  
C   6.0   38.069  38.995   0.000  
C   6.0   38.069  40.413   0.000  
C   6.0   39.297  41.122   0.000  
C   6.0   41.753  38.286   0.000  
C   6.0   40.525  38.995   0.000  
C   6.0   40.525  40.413   0.000  
C   6.0   41.753  41.122   0.000  
C   6.0   44.209  38.286   0.000  
C   6.0   42.981  38.995   0.000  
C   6.0   42.981  40.413   0.000  
C   6.0   44.209  41.122   0.000  
C   6.0   46.665  38.286   0.000  
C   6.0   45.437  38.995   0.000  
C   6.0   45.437  40.413   0.000  
C   6.0   46.665  41.122   0.000  
C   6.0   49.121  38.286   0.000  
C   6.0   47.893  38.995   0.000  
C   6.0   47.893  40.413   0.000  
C   6.0   49.121  41.122   0.000  
C   6.0    0.000  42.540   0.000  
C   6.0   -1.228  43.249   0.000  
C   6.0   -1.228  44.667   0.000  
C   6.0    0.000  45.376   0.000  
C   6.0    2.456  42.540   0.000  
C   6.0    1.228  43.249   0.000  
C   6.0    1.228  44.667   0.000  
C   6.0    2.456  45.376   0.000  
C   6.0    4.912  42.540   0.000  
C   6.0    3.684  43.249   0.000  